c CFON* coloring of the Kneser graph K(7,2) with 2 color(s)
c vertices: the 2-subsets of 1..7 in lexicographic order, numbered from 0
c x(v,c) = variable v*2 + c                 'vertex v has color c'
c u(v,c) = variable 42 + v*2 + c       'v sees color c exactly once'
p cnf 84 1974
-1 -2 0
43 44 0
-43 23 25 27 29 31 33 35 37 39 41 0
-43 -23 -25 0
-43 -23 -27 0
-43 -23 -29 0
-43 -23 -31 0
-43 -23 -33 0
-43 -23 -35 0
-43 -23 -37 0
-43 -23 -39 0
-43 -23 -41 0
-43 -25 -27 0
-43 -25 -29 0
-43 -25 -31 0
-43 -25 -33 0
-43 -25 -35 0
-43 -25 -37 0
-43 -25 -39 0
-43 -25 -41 0
-43 -27 -29 0
-43 -27 -31 0
-43 -27 -33 0
-43 -27 -35 0
-43 -27 -37 0
-43 -27 -39 0
-43 -27 -41 0
-43 -29 -31 0
-43 -29 -33 0
-43 -29 -35 0
-43 -29 -37 0
-43 -29 -39 0
-43 -29 -41 0
-43 -31 -33 0
-43 -31 -35 0
-43 -31 -37 0
-43 -31 -39 0
-43 -31 -41 0
-43 -33 -35 0
-43 -33 -37 0
-43 -33 -39 0
-43 -33 -41 0
-43 -35 -37 0
-43 -35 -39 0
-43 -35 -41 0
-43 -37 -39 0
-43 -37 -41 0
-43 -39 -41 0
-44 24 26 28 30 32 34 36 38 40 42 0
-44 -24 -26 0
-44 -24 -28 0
-44 -24 -30 0
-44 -24 -32 0
-44 -24 -34 0
-44 -24 -36 0
-44 -24 -38 0
-44 -24 -40 0
-44 -24 -42 0
-44 -26 -28 0
-44 -26 -30 0
-44 -26 -32 0
-44 -26 -34 0
-44 -26 -36 0
-44 -26 -38 0
-44 -26 -40 0
-44 -26 -42 0
-44 -28 -30 0
-44 -28 -32 0
-44 -28 -34 0
-44 -28 -36 0
-44 -28 -38 0
-44 -28 -40 0
-44 -28 -42 0
-44 -30 -32 0
-44 -30 -34 0
-44 -30 -36 0
-44 -30 -38 0
-44 -30 -40 0
-44 -30 -42 0
-44 -32 -34 0
-44 -32 -36 0
-44 -32 -38 0
-44 -32 -40 0
-44 -32 -42 0
-44 -34 -36 0
-44 -34 -38 0
-44 -34 -40 0
-44 -34 -42 0
-44 -36 -38 0
-44 -36 -40 0
-44 -36 -42 0
-44 -38 -40 0
-44 -38 -42 0
-44 -40 -42 0
-3 -4 0
45 46 0
-45 15 17 19 21 31 33 35 37 39 41 0
-45 -15 -17 0
-45 -15 -19 0
-45 -15 -21 0
-45 -15 -31 0
-45 -15 -33 0
-45 -15 -35 0
-45 -15 -37 0
-45 -15 -39 0
-45 -15 -41 0
-45 -17 -19 0
-45 -17 -21 0
-45 -17 -31 0
-45 -17 -33 0
-45 -17 -35 0
-45 -17 -37 0
-45 -17 -39 0
-45 -17 -41 0
-45 -19 -21 0
-45 -19 -31 0
-45 -19 -33 0
-45 -19 -35 0
-45 -19 -37 0
-45 -19 -39 0
-45 -19 -41 0
-45 -21 -31 0
-45 -21 -33 0
-45 -21 -35 0
-45 -21 -37 0
-45 -21 -39 0
-45 -21 -41 0
-45 -31 -33 0
-45 -31 -35 0
-45 -31 -37 0
-45 -31 -39 0
-45 -31 -41 0
-45 -33 -35 0
-45 -33 -37 0
-45 -33 -39 0
-45 -33 -41 0
-45 -35 -37 0
-45 -35 -39 0
-45 -35 -41 0
-45 -37 -39 0
-45 -37 -41 0
-45 -39 -41 0
-46 16 18 20 22 32 34 36 38 40 42 0
-46 -16 -18 0
-46 -16 -20 0
-46 -16 -22 0
-46 -16 -32 0
-46 -16 -34 0
-46 -16 -36 0
-46 -16 -38 0
-46 -16 -40 0
-46 -16 -42 0
-46 -18 -20 0
-46 -18 -22 0
-46 -18 -32 0
-46 -18 -34 0
-46 -18 -36 0
-46 -18 -38 0
-46 -18 -40 0
-46 -18 -42 0
-46 -20 -22 0
-46 -20 -32 0
-46 -20 -34 0
-46 -20 -36 0
-46 -20 -38 0
-46 -20 -40 0
-46 -20 -42 0
-46 -22 -32 0
-46 -22 -34 0
-46 -22 -36 0
-46 -22 -38 0
-46 -22 -40 0
-46 -22 -42 0
-46 -32 -34 0
-46 -32 -36 0
-46 -32 -38 0
-46 -32 -40 0
-46 -32 -42 0
-46 -34 -36 0
-46 -34 -38 0
-46 -34 -40 0
-46 -34 -42 0
-46 -36 -38 0
-46 -36 -40 0
-46 -36 -42 0
-46 -38 -40 0
-46 -38 -42 0
-46 -40 -42 0
-5 -6 0
47 48 0
-47 13 17 19 21 25 27 29 37 39 41 0
-47 -13 -17 0
-47 -13 -19 0
-47 -13 -21 0
-47 -13 -25 0
-47 -13 -27 0
-47 -13 -29 0
-47 -13 -37 0
-47 -13 -39 0
-47 -13 -41 0
-47 -17 -19 0
-47 -17 -21 0
-47 -17 -25 0
-47 -17 -27 0
-47 -17 -29 0
-47 -17 -37 0
-47 -17 -39 0
-47 -17 -41 0
-47 -19 -21 0
-47 -19 -25 0
-47 -19 -27 0
-47 -19 -29 0
-47 -19 -37 0
-47 -19 -39 0
-47 -19 -41 0
-47 -21 -25 0
-47 -21 -27 0
-47 -21 -29 0
-47 -21 -37 0
-47 -21 -39 0
-47 -21 -41 0
-47 -25 -27 0
-47 -25 -29 0
-47 -25 -37 0
-47 -25 -39 0
-47 -25 -41 0
-47 -27 -29 0
-47 -27 -37 0
-47 -27 -39 0
-47 -27 -41 0
-47 -29 -37 0
-47 -29 -39 0
-47 -29 -41 0
-47 -37 -39 0
-47 -37 -41 0
-47 -39 -41 0
-48 14 18 20 22 26 28 30 38 40 42 0
-48 -14 -18 0
-48 -14 -20 0
-48 -14 -22 0
-48 -14 -26 0
-48 -14 -28 0
-48 -14 -30 0
-48 -14 -38 0
-48 -14 -40 0
-48 -14 -42 0
-48 -18 -20 0
-48 -18 -22 0
-48 -18 -26 0
-48 -18 -28 0
-48 -18 -30 0
-48 -18 -38 0
-48 -18 -40 0
-48 -18 -42 0
-48 -20 -22 0
-48 -20 -26 0
-48 -20 -28 0
-48 -20 -30 0
-48 -20 -38 0
-48 -20 -40 0
-48 -20 -42 0
-48 -22 -26 0
-48 -22 -28 0
-48 -22 -30 0
-48 -22 -38 0
-48 -22 -40 0
-48 -22 -42 0
-48 -26 -28 0
-48 -26 -30 0
-48 -26 -38 0
-48 -26 -40 0
-48 -26 -42 0
-48 -28 -30 0
-48 -28 -38 0
-48 -28 -40 0
-48 -28 -42 0
-48 -30 -38 0
-48 -30 -40 0
-48 -30 -42 0
-48 -38 -40 0
-48 -38 -42 0
-48 -40 -42 0
-7 -8 0
49 50 0
-49 13 15 19 21 23 27 29 33 35 41 0
-49 -13 -15 0
-49 -13 -19 0
-49 -13 -21 0
-49 -13 -23 0
-49 -13 -27 0
-49 -13 -29 0
-49 -13 -33 0
-49 -13 -35 0
-49 -13 -41 0
-49 -15 -19 0
-49 -15 -21 0
-49 -15 -23 0
-49 -15 -27 0
-49 -15 -29 0
-49 -15 -33 0
-49 -15 -35 0
-49 -15 -41 0
-49 -19 -21 0
-49 -19 -23 0
-49 -19 -27 0
-49 -19 -29 0
-49 -19 -33 0
-49 -19 -35 0
-49 -19 -41 0
-49 -21 -23 0
-49 -21 -27 0
-49 -21 -29 0
-49 -21 -33 0
-49 -21 -35 0
-49 -21 -41 0
-49 -23 -27 0
-49 -23 -29 0
-49 -23 -33 0
-49 -23 -35 0
-49 -23 -41 0
-49 -27 -29 0
-49 -27 -33 0
-49 -27 -35 0
-49 -27 -41 0
-49 -29 -33 0
-49 -29 -35 0
-49 -29 -41 0
-49 -33 -35 0
-49 -33 -41 0
-49 -35 -41 0
-50 14 16 20 22 24 28 30 34 36 42 0
-50 -14 -16 0
-50 -14 -20 0
-50 -14 -22 0
-50 -14 -24 0
-50 -14 -28 0
-50 -14 -30 0
-50 -14 -34 0
-50 -14 -36 0
-50 -14 -42 0
-50 -16 -20 0
-50 -16 -22 0
-50 -16 -24 0
-50 -16 -28 0
-50 -16 -30 0
-50 -16 -34 0
-50 -16 -36 0
-50 -16 -42 0
-50 -20 -22 0
-50 -20 -24 0
-50 -20 -28 0
-50 -20 -30 0
-50 -20 -34 0
-50 -20 -36 0
-50 -20 -42 0
-50 -22 -24 0
-50 -22 -28 0
-50 -22 -30 0
-50 -22 -34 0
-50 -22 -36 0
-50 -22 -42 0
-50 -24 -28 0
-50 -24 -30 0
-50 -24 -34 0
-50 -24 -36 0
-50 -24 -42 0
-50 -28 -30 0
-50 -28 -34 0
-50 -28 -36 0
-50 -28 -42 0
-50 -30 -34 0
-50 -30 -36 0
-50 -30 -42 0
-50 -34 -36 0
-50 -34 -42 0
-50 -36 -42 0
-9 -10 0
51 52 0
-51 13 15 17 21 23 25 29 31 35 39 0
-51 -13 -15 0
-51 -13 -17 0
-51 -13 -21 0
-51 -13 -23 0
-51 -13 -25 0
-51 -13 -29 0
-51 -13 -31 0
-51 -13 -35 0
-51 -13 -39 0
-51 -15 -17 0
-51 -15 -21 0
-51 -15 -23 0
-51 -15 -25 0
-51 -15 -29 0
-51 -15 -31 0
-51 -15 -35 0
-51 -15 -39 0
-51 -17 -21 0
-51 -17 -23 0
-51 -17 -25 0
-51 -17 -29 0
-51 -17 -31 0
-51 -17 -35 0
-51 -17 -39 0
-51 -21 -23 0
-51 -21 -25 0
-51 -21 -29 0
-51 -21 -31 0
-51 -21 -35 0
-51 -21 -39 0
-51 -23 -25 0
-51 -23 -29 0
-51 -23 -31 0
-51 -23 -35 0
-51 -23 -39 0
-51 -25 -29 0
-51 -25 -31 0
-51 -25 -35 0
-51 -25 -39 0
-51 -29 -31 0
-51 -29 -35 0
-51 -29 -39 0
-51 -31 -35 0
-51 -31 -39 0
-51 -35 -39 0
-52 14 16 18 22 24 26 30 32 36 40 0
-52 -14 -16 0
-52 -14 -18 0
-52 -14 -22 0
-52 -14 -24 0
-52 -14 -26 0
-52 -14 -30 0
-52 -14 -32 0
-52 -14 -36 0
-52 -14 -40 0
-52 -16 -18 0
-52 -16 -22 0
-52 -16 -24 0
-52 -16 -26 0
-52 -16 -30 0
-52 -16 -32 0
-52 -16 -36 0
-52 -16 -40 0
-52 -18 -22 0
-52 -18 -24 0
-52 -18 -26 0
-52 -18 -30 0
-52 -18 -32 0
-52 -18 -36 0
-52 -18 -40 0
-52 -22 -24 0
-52 -22 -26 0
-52 -22 -30 0
-52 -22 -32 0
-52 -22 -36 0
-52 -22 -40 0
-52 -24 -26 0
-52 -24 -30 0
-52 -24 -32 0
-52 -24 -36 0
-52 -24 -40 0
-52 -26 -30 0
-52 -26 -32 0
-52 -26 -36 0
-52 -26 -40 0
-52 -30 -32 0
-52 -30 -36 0
-52 -30 -40 0
-52 -32 -36 0
-52 -32 -40 0
-52 -36 -40 0
-11 -12 0
53 54 0
-53 13 15 17 19 23 25 27 31 33 37 0
-53 -13 -15 0
-53 -13 -17 0
-53 -13 -19 0
-53 -13 -23 0
-53 -13 -25 0
-53 -13 -27 0
-53 -13 -31 0
-53 -13 -33 0
-53 -13 -37 0
-53 -15 -17 0
-53 -15 -19 0
-53 -15 -23 0
-53 -15 -25 0
-53 -15 -27 0
-53 -15 -31 0
-53 -15 -33 0
-53 -15 -37 0
-53 -17 -19 0
-53 -17 -23 0
-53 -17 -25 0
-53 -17 -27 0
-53 -17 -31 0
-53 -17 -33 0
-53 -17 -37 0
-53 -19 -23 0
-53 -19 -25 0
-53 -19 -27 0
-53 -19 -31 0
-53 -19 -33 0
-53 -19 -37 0
-53 -23 -25 0
-53 -23 -27 0
-53 -23 -31 0
-53 -23 -33 0
-53 -23 -37 0
-53 -25 -27 0
-53 -25 -31 0
-53 -25 -33 0
-53 -25 -37 0
-53 -27 -31 0
-53 -27 -33 0
-53 -27 -37 0
-53 -31 -33 0
-53 -31 -37 0
-53 -33 -37 0
-54 14 16 18 20 24 26 28 32 34 38 0
-54 -14 -16 0
-54 -14 -18 0
-54 -14 -20 0
-54 -14 -24 0
-54 -14 -26 0
-54 -14 -28 0
-54 -14 -32 0
-54 -14 -34 0
-54 -14 -38 0
-54 -16 -18 0
-54 -16 -20 0
-54 -16 -24 0
-54 -16 -26 0
-54 -16 -28 0
-54 -16 -32 0
-54 -16 -34 0
-54 -16 -38 0
-54 -18 -20 0
-54 -18 -24 0
-54 -18 -26 0
-54 -18 -28 0
-54 -18 -32 0
-54 -18 -34 0
-54 -18 -38 0
-54 -20 -24 0
-54 -20 -26 0
-54 -20 -28 0
-54 -20 -32 0
-54 -20 -34 0
-54 -20 -38 0
-54 -24 -26 0
-54 -24 -28 0
-54 -24 -32 0
-54 -24 -34 0
-54 -24 -38 0
-54 -26 -28 0
-54 -26 -32 0
-54 -26 -34 0
-54 -26 -38 0
-54 -28 -32 0
-54 -28 -34 0
-54 -28 -38 0
-54 -32 -34 0
-54 -32 -38 0
-54 -34 -38 0
-13 -14 0
55 56 0
-55 5 7 9 11 31 33 35 37 39 41 0
-55 -5 -7 0
-55 -5 -9 0
-55 -5 -11 0
-55 -5 -31 0
-55 -5 -33 0
-55 -5 -35 0
-55 -5 -37 0
-55 -5 -39 0
-55 -5 -41 0
-55 -7 -9 0
-55 -7 -11 0
-55 -7 -31 0
-55 -7 -33 0
-55 -7 -35 0
-55 -7 -37 0
-55 -7 -39 0
-55 -7 -41 0
-55 -9 -11 0
-55 -9 -31 0
-55 -9 -33 0
-55 -9 -35 0
-55 -9 -37 0
-55 -9 -39 0
-55 -9 -41 0
-55 -11 -31 0
-55 -11 -33 0
-55 -11 -35 0
-55 -11 -37 0
-55 -11 -39 0
-55 -11 -41 0
-55 -31 -33 0
-55 -31 -35 0
-55 -31 -37 0
-55 -31 -39 0
-55 -31 -41 0
-55 -33 -35 0
-55 -33 -37 0
-55 -33 -39 0
-55 -33 -41 0
-55 -35 -37 0
-55 -35 -39 0
-55 -35 -41 0
-55 -37 -39 0
-55 -37 -41 0
-55 -39 -41 0
-56 6 8 10 12 32 34 36 38 40 42 0
-56 -6 -8 0
-56 -6 -10 0
-56 -6 -12 0
-56 -6 -32 0
-56 -6 -34 0
-56 -6 -36 0
-56 -6 -38 0
-56 -6 -40 0
-56 -6 -42 0
-56 -8 -10 0
-56 -8 -12 0
-56 -8 -32 0
-56 -8 -34 0
-56 -8 -36 0
-56 -8 -38 0
-56 -8 -40 0
-56 -8 -42 0
-56 -10 -12 0
-56 -10 -32 0
-56 -10 -34 0
-56 -10 -36 0
-56 -10 -38 0
-56 -10 -40 0
-56 -10 -42 0
-56 -12 -32 0
-56 -12 -34 0
-56 -12 -36 0
-56 -12 -38 0
-56 -12 -40 0
-56 -12 -42 0
-56 -32 -34 0
-56 -32 -36 0
-56 -32 -38 0
-56 -32 -40 0
-56 -32 -42 0
-56 -34 -36 0
-56 -34 -38 0
-56 -34 -40 0
-56 -34 -42 0
-56 -36 -38 0
-56 -36 -40 0
-56 -36 -42 0
-56 -38 -40 0
-56 -38 -42 0
-56 -40 -42 0
-15 -16 0
57 58 0
-57 3 7 9 11 25 27 29 37 39 41 0
-57 -3 -7 0
-57 -3 -9 0
-57 -3 -11 0
-57 -3 -25 0
-57 -3 -27 0
-57 -3 -29 0
-57 -3 -37 0
-57 -3 -39 0
-57 -3 -41 0
-57 -7 -9 0
-57 -7 -11 0
-57 -7 -25 0
-57 -7 -27 0
-57 -7 -29 0
-57 -7 -37 0
-57 -7 -39 0
-57 -7 -41 0
-57 -9 -11 0
-57 -9 -25 0
-57 -9 -27 0
-57 -9 -29 0
-57 -9 -37 0
-57 -9 -39 0
-57 -9 -41 0
-57 -11 -25 0
-57 -11 -27 0
-57 -11 -29 0
-57 -11 -37 0
-57 -11 -39 0
-57 -11 -41 0
-57 -25 -27 0
-57 -25 -29 0
-57 -25 -37 0
-57 -25 -39 0
-57 -25 -41 0
-57 -27 -29 0
-57 -27 -37 0
-57 -27 -39 0
-57 -27 -41 0
-57 -29 -37 0
-57 -29 -39 0
-57 -29 -41 0
-57 -37 -39 0
-57 -37 -41 0
-57 -39 -41 0
-58 4 8 10 12 26 28 30 38 40 42 0
-58 -4 -8 0
-58 -4 -10 0
-58 -4 -12 0
-58 -4 -26 0
-58 -4 -28 0
-58 -4 -30 0
-58 -4 -38 0
-58 -4 -40 0
-58 -4 -42 0
-58 -8 -10 0
-58 -8 -12 0
-58 -8 -26 0
-58 -8 -28 0
-58 -8 -30 0
-58 -8 -38 0
-58 -8 -40 0
-58 -8 -42 0
-58 -10 -12 0
-58 -10 -26 0
-58 -10 -28 0
-58 -10 -30 0
-58 -10 -38 0
-58 -10 -40 0
-58 -10 -42 0
-58 -12 -26 0
-58 -12 -28 0
-58 -12 -30 0
-58 -12 -38 0
-58 -12 -40 0
-58 -12 -42 0
-58 -26 -28 0
-58 -26 -30 0
-58 -26 -38 0
-58 -26 -40 0
-58 -26 -42 0
-58 -28 -30 0
-58 -28 -38 0
-58 -28 -40 0
-58 -28 -42 0
-58 -30 -38 0
-58 -30 -40 0
-58 -30 -42 0
-58 -38 -40 0
-58 -38 -42 0
-58 -40 -42 0
-17 -18 0
59 60 0
-59 3 5 9 11 23 27 29 33 35 41 0
-59 -3 -5 0
-59 -3 -9 0
-59 -3 -11 0
-59 -3 -23 0
-59 -3 -27 0
-59 -3 -29 0
-59 -3 -33 0
-59 -3 -35 0
-59 -3 -41 0
-59 -5 -9 0
-59 -5 -11 0
-59 -5 -23 0
-59 -5 -27 0
-59 -5 -29 0
-59 -5 -33 0
-59 -5 -35 0
-59 -5 -41 0
-59 -9 -11 0
-59 -9 -23 0
-59 -9 -27 0
-59 -9 -29 0
-59 -9 -33 0
-59 -9 -35 0
-59 -9 -41 0
-59 -11 -23 0
-59 -11 -27 0
-59 -11 -29 0
-59 -11 -33 0
-59 -11 -35 0
-59 -11 -41 0
-59 -23 -27 0
-59 -23 -29 0
-59 -23 -33 0
-59 -23 -35 0
-59 -23 -41 0
-59 -27 -29 0
-59 -27 -33 0
-59 -27 -35 0
-59 -27 -41 0
-59 -29 -33 0
-59 -29 -35 0
-59 -29 -41 0
-59 -33 -35 0
-59 -33 -41 0
-59 -35 -41 0
-60 4 6 10 12 24 28 30 34 36 42 0
-60 -4 -6 0
-60 -4 -10 0
-60 -4 -12 0
-60 -4 -24 0
-60 -4 -28 0
-60 -4 -30 0
-60 -4 -34 0
-60 -4 -36 0
-60 -4 -42 0
-60 -6 -10 0
-60 -6 -12 0
-60 -6 -24 0
-60 -6 -28 0
-60 -6 -30 0
-60 -6 -34 0
-60 -6 -36 0
-60 -6 -42 0
-60 -10 -12 0
-60 -10 -24 0
-60 -10 -28 0
-60 -10 -30 0
-60 -10 -34 0
-60 -10 -36 0
-60 -10 -42 0
-60 -12 -24 0
-60 -12 -28 0
-60 -12 -30 0
-60 -12 -34 0
-60 -12 -36 0
-60 -12 -42 0
-60 -24 -28 0
-60 -24 -30 0
-60 -24 -34 0
-60 -24 -36 0
-60 -24 -42 0
-60 -28 -30 0
-60 -28 -34 0
-60 -28 -36 0
-60 -28 -42 0
-60 -30 -34 0
-60 -30 -36 0
-60 -30 -42 0
-60 -34 -36 0
-60 -34 -42 0
-60 -36 -42 0
-19 -20 0
61 62 0
-61 3 5 7 11 23 25 29 31 35 39 0
-61 -3 -5 0
-61 -3 -7 0
-61 -3 -11 0
-61 -3 -23 0
-61 -3 -25 0
-61 -3 -29 0
-61 -3 -31 0
-61 -3 -35 0
-61 -3 -39 0
-61 -5 -7 0
-61 -5 -11 0
-61 -5 -23 0
-61 -5 -25 0
-61 -5 -29 0
-61 -5 -31 0
-61 -5 -35 0
-61 -5 -39 0
-61 -7 -11 0
-61 -7 -23 0
-61 -7 -25 0
-61 -7 -29 0
-61 -7 -31 0
-61 -7 -35 0
-61 -7 -39 0
-61 -11 -23 0
-61 -11 -25 0
-61 -11 -29 0
-61 -11 -31 0
-61 -11 -35 0
-61 -11 -39 0
-61 -23 -25 0
-61 -23 -29 0
-61 -23 -31 0
-61 -23 -35 0
-61 -23 -39 0
-61 -25 -29 0
-61 -25 -31 0
-61 -25 -35 0
-61 -25 -39 0
-61 -29 -31 0
-61 -29 -35 0
-61 -29 -39 0
-61 -31 -35 0
-61 -31 -39 0
-61 -35 -39 0
-62 4 6 8 12 24 26 30 32 36 40 0
-62 -4 -6 0
-62 -4 -8 0
-62 -4 -12 0
-62 -4 -24 0
-62 -4 -26 0
-62 -4 -30 0
-62 -4 -32 0
-62 -4 -36 0
-62 -4 -40 0
-62 -6 -8 0
-62 -6 -12 0
-62 -6 -24 0
-62 -6 -26 0
-62 -6 -30 0
-62 -6 -32 0
-62 -6 -36 0
-62 -6 -40 0
-62 -8 -12 0
-62 -8 -24 0
-62 -8 -26 0
-62 -8 -30 0
-62 -8 -32 0
-62 -8 -36 0
-62 -8 -40 0
-62 -12 -24 0
-62 -12 -26 0
-62 -12 -30 0
-62 -12 -32 0
-62 -12 -36 0
-62 -12 -40 0
-62 -24 -26 0
-62 -24 -30 0
-62 -24 -32 0
-62 -24 -36 0
-62 -24 -40 0
-62 -26 -30 0
-62 -26 -32 0
-62 -26 -36 0
-62 -26 -40 0
-62 -30 -32 0
-62 -30 -36 0
-62 -30 -40 0
-62 -32 -36 0
-62 -32 -40 0
-62 -36 -40 0
-21 -22 0
63 64 0
-63 3 5 7 9 23 25 27 31 33 37 0
-63 -3 -5 0
-63 -3 -7 0
-63 -3 -9 0
-63 -3 -23 0
-63 -3 -25 0
-63 -3 -27 0
-63 -3 -31 0
-63 -3 -33 0
-63 -3 -37 0
-63 -5 -7 0
-63 -5 -9 0
-63 -5 -23 0
-63 -5 -25 0
-63 -5 -27 0
-63 -5 -31 0
-63 -5 -33 0
-63 -5 -37 0
-63 -7 -9 0
-63 -7 -23 0
-63 -7 -25 0
-63 -7 -27 0
-63 -7 -31 0
-63 -7 -33 0
-63 -7 -37 0
-63 -9 -23 0
-63 -9 -25 0
-63 -9 -27 0
-63 -9 -31 0
-63 -9 -33 0
-63 -9 -37 0
-63 -23 -25 0
-63 -23 -27 0
-63 -23 -31 0
-63 -23 -33 0
-63 -23 -37 0
-63 -25 -27 0
-63 -25 -31 0
-63 -25 -33 0
-63 -25 -37 0
-63 -27 -31 0
-63 -27 -33 0
-63 -27 -37 0
-63 -31 -33 0
-63 -31 -37 0
-63 -33 -37 0
-64 4 6 8 10 24 26 28 32 34 38 0
-64 -4 -6 0
-64 -4 -8 0
-64 -4 -10 0
-64 -4 -24 0
-64 -4 -26 0
-64 -4 -28 0
-64 -4 -32 0
-64 -4 -34 0
-64 -4 -38 0
-64 -6 -8 0
-64 -6 -10 0
-64 -6 -24 0
-64 -6 -26 0
-64 -6 -28 0
-64 -6 -32 0
-64 -6 -34 0
-64 -6 -38 0
-64 -8 -10 0
-64 -8 -24 0
-64 -8 -26 0
-64 -8 -28 0
-64 -8 -32 0
-64 -8 -34 0
-64 -8 -38 0
-64 -10 -24 0
-64 -10 -26 0
-64 -10 -28 0
-64 -10 -32 0
-64 -10 -34 0
-64 -10 -38 0
-64 -24 -26 0
-64 -24 -28 0
-64 -24 -32 0
-64 -24 -34 0
-64 -24 -38 0
-64 -26 -28 0
-64 -26 -32 0
-64 -26 -34 0
-64 -26 -38 0
-64 -28 -32 0
-64 -28 -34 0
-64 -28 -38 0
-64 -32 -34 0
-64 -32 -38 0
-64 -34 -38 0
-23 -24 0
65 66 0
-65 1 7 9 11 17 19 21 37 39 41 0
-65 -1 -7 0
-65 -1 -9 0
-65 -1 -11 0
-65 -1 -17 0
-65 -1 -19 0
-65 -1 -21 0
-65 -1 -37 0
-65 -1 -39 0
-65 -1 -41 0
-65 -7 -9 0
-65 -7 -11 0
-65 -7 -17 0
-65 -7 -19 0
-65 -7 -21 0
-65 -7 -37 0
-65 -7 -39 0
-65 -7 -41 0
-65 -9 -11 0
-65 -9 -17 0
-65 -9 -19 0
-65 -9 -21 0
-65 -9 -37 0
-65 -9 -39 0
-65 -9 -41 0
-65 -11 -17 0
-65 -11 -19 0
-65 -11 -21 0
-65 -11 -37 0
-65 -11 -39 0
-65 -11 -41 0
-65 -17 -19 0
-65 -17 -21 0
-65 -17 -37 0
-65 -17 -39 0
-65 -17 -41 0
-65 -19 -21 0
-65 -19 -37 0
-65 -19 -39 0
-65 -19 -41 0
-65 -21 -37 0
-65 -21 -39 0
-65 -21 -41 0
-65 -37 -39 0
-65 -37 -41 0
-65 -39 -41 0
-66 2 8 10 12 18 20 22 38 40 42 0
-66 -2 -8 0
-66 -2 -10 0
-66 -2 -12 0
-66 -2 -18 0
-66 -2 -20 0
-66 -2 -22 0
-66 -2 -38 0
-66 -2 -40 0
-66 -2 -42 0
-66 -8 -10 0
-66 -8 -12 0
-66 -8 -18 0
-66 -8 -20 0
-66 -8 -22 0
-66 -8 -38 0
-66 -8 -40 0
-66 -8 -42 0
-66 -10 -12 0
-66 -10 -18 0
-66 -10 -20 0
-66 -10 -22 0
-66 -10 -38 0
-66 -10 -40 0
-66 -10 -42 0
-66 -12 -18 0
-66 -12 -20 0
-66 -12 -22 0
-66 -12 -38 0
-66 -12 -40 0
-66 -12 -42 0
-66 -18 -20 0
-66 -18 -22 0
-66 -18 -38 0
-66 -18 -40 0
-66 -18 -42 0
-66 -20 -22 0
-66 -20 -38 0
-66 -20 -40 0
-66 -20 -42 0
-66 -22 -38 0
-66 -22 -40 0
-66 -22 -42 0
-66 -38 -40 0
-66 -38 -42 0
-66 -40 -42 0
-25 -26 0
67 68 0
-67 1 5 9 11 15 19 21 33 35 41 0
-67 -1 -5 0
-67 -1 -9 0
-67 -1 -11 0
-67 -1 -15 0
-67 -1 -19 0
-67 -1 -21 0
-67 -1 -33 0
-67 -1 -35 0
-67 -1 -41 0
-67 -5 -9 0
-67 -5 -11 0
-67 -5 -15 0
-67 -5 -19 0
-67 -5 -21 0
-67 -5 -33 0
-67 -5 -35 0
-67 -5 -41 0
-67 -9 -11 0
-67 -9 -15 0
-67 -9 -19 0
-67 -9 -21 0
-67 -9 -33 0
-67 -9 -35 0
-67 -9 -41 0
-67 -11 -15 0
-67 -11 -19 0
-67 -11 -21 0
-67 -11 -33 0
-67 -11 -35 0
-67 -11 -41 0
-67 -15 -19 0
-67 -15 -21 0
-67 -15 -33 0
-67 -15 -35 0
-67 -15 -41 0
-67 -19 -21 0
-67 -19 -33 0
-67 -19 -35 0
-67 -19 -41 0
-67 -21 -33 0
-67 -21 -35 0
-67 -21 -41 0
-67 -33 -35 0
-67 -33 -41 0
-67 -35 -41 0
-68 2 6 10 12 16 20 22 34 36 42 0
-68 -2 -6 0
-68 -2 -10 0
-68 -2 -12 0
-68 -2 -16 0
-68 -2 -20 0
-68 -2 -22 0
-68 -2 -34 0
-68 -2 -36 0
-68 -2 -42 0
-68 -6 -10 0
-68 -6 -12 0
-68 -6 -16 0
-68 -6 -20 0
-68 -6 -22 0
-68 -6 -34 0
-68 -6 -36 0
-68 -6 -42 0
-68 -10 -12 0
-68 -10 -16 0
-68 -10 -20 0
-68 -10 -22 0
-68 -10 -34 0
-68 -10 -36 0
-68 -10 -42 0
-68 -12 -16 0
-68 -12 -20 0
-68 -12 -22 0
-68 -12 -34 0
-68 -12 -36 0
-68 -12 -42 0
-68 -16 -20 0
-68 -16 -22 0
-68 -16 -34 0
-68 -16 -36 0
-68 -16 -42 0
-68 -20 -22 0
-68 -20 -34 0
-68 -20 -36 0
-68 -20 -42 0
-68 -22 -34 0
-68 -22 -36 0
-68 -22 -42 0
-68 -34 -36 0
-68 -34 -42 0
-68 -36 -42 0
-27 -28 0
69 70 0
-69 1 5 7 11 15 17 21 31 35 39 0
-69 -1 -5 0
-69 -1 -7 0
-69 -1 -11 0
-69 -1 -15 0
-69 -1 -17 0
-69 -1 -21 0
-69 -1 -31 0
-69 -1 -35 0
-69 -1 -39 0
-69 -5 -7 0
-69 -5 -11 0
-69 -5 -15 0
-69 -5 -17 0
-69 -5 -21 0
-69 -5 -31 0
-69 -5 -35 0
-69 -5 -39 0
-69 -7 -11 0
-69 -7 -15 0
-69 -7 -17 0
-69 -7 -21 0
-69 -7 -31 0
-69 -7 -35 0
-69 -7 -39 0
-69 -11 -15 0
-69 -11 -17 0
-69 -11 -21 0
-69 -11 -31 0
-69 -11 -35 0
-69 -11 -39 0
-69 -15 -17 0
-69 -15 -21 0
-69 -15 -31 0
-69 -15 -35 0
-69 -15 -39 0
-69 -17 -21 0
-69 -17 -31 0
-69 -17 -35 0
-69 -17 -39 0
-69 -21 -31 0
-69 -21 -35 0
-69 -21 -39 0
-69 -31 -35 0
-69 -31 -39 0
-69 -35 -39 0
-70 2 6 8 12 16 18 22 32 36 40 0
-70 -2 -6 0
-70 -2 -8 0
-70 -2 -12 0
-70 -2 -16 0
-70 -2 -18 0
-70 -2 -22 0
-70 -2 -32 0
-70 -2 -36 0
-70 -2 -40 0
-70 -6 -8 0
-70 -6 -12 0
-70 -6 -16 0
-70 -6 -18 0
-70 -6 -22 0
-70 -6 -32 0
-70 -6 -36 0
-70 -6 -40 0
-70 -8 -12 0
-70 -8 -16 0
-70 -8 -18 0
-70 -8 -22 0
-70 -8 -32 0
-70 -8 -36 0
-70 -8 -40 0
-70 -12 -16 0
-70 -12 -18 0
-70 -12 -22 0
-70 -12 -32 0
-70 -12 -36 0
-70 -12 -40 0
-70 -16 -18 0
-70 -16 -22 0
-70 -16 -32 0
-70 -16 -36 0
-70 -16 -40 0
-70 -18 -22 0
-70 -18 -32 0
-70 -18 -36 0
-70 -18 -40 0
-70 -22 -32 0
-70 -22 -36 0
-70 -22 -40 0
-70 -32 -36 0
-70 -32 -40 0
-70 -36 -40 0
-29 -30 0
71 72 0
-71 1 5 7 9 15 17 19 31 33 37 0
-71 -1 -5 0
-71 -1 -7 0
-71 -1 -9 0
-71 -1 -15 0
-71 -1 -17 0
-71 -1 -19 0
-71 -1 -31 0
-71 -1 -33 0
-71 -1 -37 0
-71 -5 -7 0
-71 -5 -9 0
-71 -5 -15 0
-71 -5 -17 0
-71 -5 -19 0
-71 -5 -31 0
-71 -5 -33 0
-71 -5 -37 0
-71 -7 -9 0
-71 -7 -15 0
-71 -7 -17 0
-71 -7 -19 0
-71 -7 -31 0
-71 -7 -33 0
-71 -7 -37 0
-71 -9 -15 0
-71 -9 -17 0
-71 -9 -19 0
-71 -9 -31 0
-71 -9 -33 0
-71 -9 -37 0
-71 -15 -17 0
-71 -15 -19 0
-71 -15 -31 0
-71 -15 -33 0
-71 -15 -37 0
-71 -17 -19 0
-71 -17 -31 0
-71 -17 -33 0
-71 -17 -37 0
-71 -19 -31 0
-71 -19 -33 0
-71 -19 -37 0
-71 -31 -33 0
-71 -31 -37 0
-71 -33 -37 0
-72 2 6 8 10 16 18 20 32 34 38 0
-72 -2 -6 0
-72 -2 -8 0
-72 -2 -10 0
-72 -2 -16 0
-72 -2 -18 0
-72 -2 -20 0
-72 -2 -32 0
-72 -2 -34 0
-72 -2 -38 0
-72 -6 -8 0
-72 -6 -10 0
-72 -6 -16 0
-72 -6 -18 0
-72 -6 -20 0
-72 -6 -32 0
-72 -6 -34 0
-72 -6 -38 0
-72 -8 -10 0
-72 -8 -16 0
-72 -8 -18 0
-72 -8 -20 0
-72 -8 -32 0
-72 -8 -34 0
-72 -8 -38 0
-72 -10 -16 0
-72 -10 -18 0
-72 -10 -20 0
-72 -10 -32 0
-72 -10 -34 0
-72 -10 -38 0
-72 -16 -18 0
-72 -16 -20 0
-72 -16 -32 0
-72 -16 -34 0
-72 -16 -38 0
-72 -18 -20 0
-72 -18 -32 0
-72 -18 -34 0
-72 -18 -38 0
-72 -20 -32 0
-72 -20 -34 0
-72 -20 -38 0
-72 -32 -34 0
-72 -32 -38 0
-72 -34 -38 0
-31 -32 0
73 74 0
-73 1 3 9 11 13 19 21 27 29 41 0
-73 -1 -3 0
-73 -1 -9 0
-73 -1 -11 0
-73 -1 -13 0
-73 -1 -19 0
-73 -1 -21 0
-73 -1 -27 0
-73 -1 -29 0
-73 -1 -41 0
-73 -3 -9 0
-73 -3 -11 0
-73 -3 -13 0
-73 -3 -19 0
-73 -3 -21 0
-73 -3 -27 0
-73 -3 -29 0
-73 -3 -41 0
-73 -9 -11 0
-73 -9 -13 0
-73 -9 -19 0
-73 -9 -21 0
-73 -9 -27 0
-73 -9 -29 0
-73 -9 -41 0
-73 -11 -13 0
-73 -11 -19 0
-73 -11 -21 0
-73 -11 -27 0
-73 -11 -29 0
-73 -11 -41 0
-73 -13 -19 0
-73 -13 -21 0
-73 -13 -27 0
-73 -13 -29 0
-73 -13 -41 0
-73 -19 -21 0
-73 -19 -27 0
-73 -19 -29 0
-73 -19 -41 0
-73 -21 -27 0
-73 -21 -29 0
-73 -21 -41 0
-73 -27 -29 0
-73 -27 -41 0
-73 -29 -41 0
-74 2 4 10 12 14 20 22 28 30 42 0
-74 -2 -4 0
-74 -2 -10 0
-74 -2 -12 0
-74 -2 -14 0
-74 -2 -20 0
-74 -2 -22 0
-74 -2 -28 0
-74 -2 -30 0
-74 -2 -42 0
-74 -4 -10 0
-74 -4 -12 0
-74 -4 -14 0
-74 -4 -20 0
-74 -4 -22 0
-74 -4 -28 0
-74 -4 -30 0
-74 -4 -42 0
-74 -10 -12 0
-74 -10 -14 0
-74 -10 -20 0
-74 -10 -22 0
-74 -10 -28 0
-74 -10 -30 0
-74 -10 -42 0
-74 -12 -14 0
-74 -12 -20 0
-74 -12 -22 0
-74 -12 -28 0
-74 -12 -30 0
-74 -12 -42 0
-74 -14 -20 0
-74 -14 -22 0
-74 -14 -28 0
-74 -14 -30 0
-74 -14 -42 0
-74 -20 -22 0
-74 -20 -28 0
-74 -20 -30 0
-74 -20 -42 0
-74 -22 -28 0
-74 -22 -30 0
-74 -22 -42 0
-74 -28 -30 0
-74 -28 -42 0
-74 -30 -42 0
-33 -34 0
75 76 0
-75 1 3 7 11 13 17 21 25 29 39 0
-75 -1 -3 0
-75 -1 -7 0
-75 -1 -11 0
-75 -1 -13 0
-75 -1 -17 0
-75 -1 -21 0
-75 -1 -25 0
-75 -1 -29 0
-75 -1 -39 0
-75 -3 -7 0
-75 -3 -11 0
-75 -3 -13 0
-75 -3 -17 0
-75 -3 -21 0
-75 -3 -25 0
-75 -3 -29 0
-75 -3 -39 0
-75 -7 -11 0
-75 -7 -13 0
-75 -7 -17 0
-75 -7 -21 0
-75 -7 -25 0
-75 -7 -29 0
-75 -7 -39 0
-75 -11 -13 0
-75 -11 -17 0
-75 -11 -21 0
-75 -11 -25 0
-75 -11 -29 0
-75 -11 -39 0
-75 -13 -17 0
-75 -13 -21 0
-75 -13 -25 0
-75 -13 -29 0
-75 -13 -39 0
-75 -17 -21 0
-75 -17 -25 0
-75 -17 -29 0
-75 -17 -39 0
-75 -21 -25 0
-75 -21 -29 0
-75 -21 -39 0
-75 -25 -29 0
-75 -25 -39 0
-75 -29 -39 0
-76 2 4 8 12 14 18 22 26 30 40 0
-76 -2 -4 0
-76 -2 -8 0
-76 -2 -12 0
-76 -2 -14 0
-76 -2 -18 0
-76 -2 -22 0
-76 -2 -26 0
-76 -2 -30 0
-76 -2 -40 0
-76 -4 -8 0
-76 -4 -12 0
-76 -4 -14 0
-76 -4 -18 0
-76 -4 -22 0
-76 -4 -26 0
-76 -4 -30 0
-76 -4 -40 0
-76 -8 -12 0
-76 -8 -14 0
-76 -8 -18 0
-76 -8 -22 0
-76 -8 -26 0
-76 -8 -30 0
-76 -8 -40 0
-76 -12 -14 0
-76 -12 -18 0
-76 -12 -22 0
-76 -12 -26 0
-76 -12 -30 0
-76 -12 -40 0
-76 -14 -18 0
-76 -14 -22 0
-76 -14 -26 0
-76 -14 -30 0
-76 -14 -40 0
-76 -18 -22 0
-76 -18 -26 0
-76 -18 -30 0
-76 -18 -40 0
-76 -22 -26 0
-76 -22 -30 0
-76 -22 -40 0
-76 -26 -30 0
-76 -26 -40 0
-76 -30 -40 0
-35 -36 0
77 78 0
-77 1 3 7 9 13 17 19 25 27 37 0
-77 -1 -3 0
-77 -1 -7 0
-77 -1 -9 0
-77 -1 -13 0
-77 -1 -17 0
-77 -1 -19 0
-77 -1 -25 0
-77 -1 -27 0
-77 -1 -37 0
-77 -3 -7 0
-77 -3 -9 0
-77 -3 -13 0
-77 -3 -17 0
-77 -3 -19 0
-77 -3 -25 0
-77 -3 -27 0
-77 -3 -37 0
-77 -7 -9 0
-77 -7 -13 0
-77 -7 -17 0
-77 -7 -19 0
-77 -7 -25 0
-77 -7 -27 0
-77 -7 -37 0
-77 -9 -13 0
-77 -9 -17 0
-77 -9 -19 0
-77 -9 -25 0
-77 -9 -27 0
-77 -9 -37 0
-77 -13 -17 0
-77 -13 -19 0
-77 -13 -25 0
-77 -13 -27 0
-77 -13 -37 0
-77 -17 -19 0
-77 -17 -25 0
-77 -17 -27 0
-77 -17 -37 0
-77 -19 -25 0
-77 -19 -27 0
-77 -19 -37 0
-77 -25 -27 0
-77 -25 -37 0
-77 -27 -37 0
-78 2 4 8 10 14 18 20 26 28 38 0
-78 -2 -4 0
-78 -2 -8 0
-78 -2 -10 0
-78 -2 -14 0
-78 -2 -18 0
-78 -2 -20 0
-78 -2 -26 0
-78 -2 -28 0
-78 -2 -38 0
-78 -4 -8 0
-78 -4 -10 0
-78 -4 -14 0
-78 -4 -18 0
-78 -4 -20 0
-78 -4 -26 0
-78 -4 -28 0
-78 -4 -38 0
-78 -8 -10 0
-78 -8 -14 0
-78 -8 -18 0
-78 -8 -20 0
-78 -8 -26 0
-78 -8 -28 0
-78 -8 -38 0
-78 -10 -14 0
-78 -10 -18 0
-78 -10 -20 0
-78 -10 -26 0
-78 -10 -28 0
-78 -10 -38 0
-78 -14 -18 0
-78 -14 -20 0
-78 -14 -26 0
-78 -14 -28 0
-78 -14 -38 0
-78 -18 -20 0
-78 -18 -26 0
-78 -18 -28 0
-78 -18 -38 0
-78 -20 -26 0
-78 -20 -28 0
-78 -20 -38 0
-78 -26 -28 0
-78 -26 -38 0
-78 -28 -38 0
-37 -38 0
79 80 0
-79 1 3 5 11 13 15 21 23 29 35 0
-79 -1 -3 0
-79 -1 -5 0
-79 -1 -11 0
-79 -1 -13 0
-79 -1 -15 0
-79 -1 -21 0
-79 -1 -23 0
-79 -1 -29 0
-79 -1 -35 0
-79 -3 -5 0
-79 -3 -11 0
-79 -3 -13 0
-79 -3 -15 0
-79 -3 -21 0
-79 -3 -23 0
-79 -3 -29 0
-79 -3 -35 0
-79 -5 -11 0
-79 -5 -13 0
-79 -5 -15 0
-79 -5 -21 0
-79 -5 -23 0
-79 -5 -29 0
-79 -5 -35 0
-79 -11 -13 0
-79 -11 -15 0
-79 -11 -21 0
-79 -11 -23 0
-79 -11 -29 0
-79 -11 -35 0
-79 -13 -15 0
-79 -13 -21 0
-79 -13 -23 0
-79 -13 -29 0
-79 -13 -35 0
-79 -15 -21 0
-79 -15 -23 0
-79 -15 -29 0
-79 -15 -35 0
-79 -21 -23 0
-79 -21 -29 0
-79 -21 -35 0
-79 -23 -29 0
-79 -23 -35 0
-79 -29 -35 0
-80 2 4 6 12 14 16 22 24 30 36 0
-80 -2 -4 0
-80 -2 -6 0
-80 -2 -12 0
-80 -2 -14 0
-80 -2 -16 0
-80 -2 -22 0
-80 -2 -24 0
-80 -2 -30 0
-80 -2 -36 0
-80 -4 -6 0
-80 -4 -12 0
-80 -4 -14 0
-80 -4 -16 0
-80 -4 -22 0
-80 -4 -24 0
-80 -4 -30 0
-80 -4 -36 0
-80 -6 -12 0
-80 -6 -14 0
-80 -6 -16 0
-80 -6 -22 0
-80 -6 -24 0
-80 -6 -30 0
-80 -6 -36 0
-80 -12 -14 0
-80 -12 -16 0
-80 -12 -22 0
-80 -12 -24 0
-80 -12 -30 0
-80 -12 -36 0
-80 -14 -16 0
-80 -14 -22 0
-80 -14 -24 0
-80 -14 -30 0
-80 -14 -36 0
-80 -16 -22 0
-80 -16 -24 0
-80 -16 -30 0
-80 -16 -36 0
-80 -22 -24 0
-80 -22 -30 0
-80 -22 -36 0
-80 -24 -30 0
-80 -24 -36 0
-80 -30 -36 0
-39 -40 0
81 82 0
-81 1 3 5 9 13 15 19 23 27 33 0
-81 -1 -3 0
-81 -1 -5 0
-81 -1 -9 0
-81 -1 -13 0
-81 -1 -15 0
-81 -1 -19 0
-81 -1 -23 0
-81 -1 -27 0
-81 -1 -33 0
-81 -3 -5 0
-81 -3 -9 0
-81 -3 -13 0
-81 -3 -15 0
-81 -3 -19 0
-81 -3 -23 0
-81 -3 -27 0
-81 -3 -33 0
-81 -5 -9 0
-81 -5 -13 0
-81 -5 -15 0
-81 -5 -19 0
-81 -5 -23 0
-81 -5 -27 0
-81 -5 -33 0
-81 -9 -13 0
-81 -9 -15 0
-81 -9 -19 0
-81 -9 -23 0
-81 -9 -27 0
-81 -9 -33 0
-81 -13 -15 0
-81 -13 -19 0
-81 -13 -23 0
-81 -13 -27 0
-81 -13 -33 0
-81 -15 -19 0
-81 -15 -23 0
-81 -15 -27 0
-81 -15 -33 0
-81 -19 -23 0
-81 -19 -27 0
-81 -19 -33 0
-81 -23 -27 0
-81 -23 -33 0
-81 -27 -33 0
-82 2 4 6 10 14 16 20 24 28 34 0
-82 -2 -4 0
-82 -2 -6 0
-82 -2 -10 0
-82 -2 -14 0
-82 -2 -16 0
-82 -2 -20 0
-82 -2 -24 0
-82 -2 -28 0
-82 -2 -34 0
-82 -4 -6 0
-82 -4 -10 0
-82 -4 -14 0
-82 -4 -16 0
-82 -4 -20 0
-82 -4 -24 0
-82 -4 -28 0
-82 -4 -34 0
-82 -6 -10 0
-82 -6 -14 0
-82 -6 -16 0
-82 -6 -20 0
-82 -6 -24 0
-82 -6 -28 0
-82 -6 -34 0
-82 -10 -14 0
-82 -10 -16 0
-82 -10 -20 0
-82 -10 -24 0
-82 -10 -28 0
-82 -10 -34 0
-82 -14 -16 0
-82 -14 -20 0
-82 -14 -24 0
-82 -14 -28 0
-82 -14 -34 0
-82 -16 -20 0
-82 -16 -24 0
-82 -16 -28 0
-82 -16 -34 0
-82 -20 -24 0
-82 -20 -28 0
-82 -20 -34 0
-82 -24 -28 0
-82 -24 -34 0
-82 -28 -34 0
-41 -42 0
83 84 0
-83 1 3 5 7 13 15 17 23 25 31 0
-83 -1 -3 0
-83 -1 -5 0
-83 -1 -7 0
-83 -1 -13 0
-83 -1 -15 0
-83 -1 -17 0
-83 -1 -23 0
-83 -1 -25 0
-83 -1 -31 0
-83 -3 -5 0
-83 -3 -7 0
-83 -3 -13 0
-83 -3 -15 0
-83 -3 -17 0
-83 -3 -23 0
-83 -3 -25 0
-83 -3 -31 0
-83 -5 -7 0
-83 -5 -13 0
-83 -5 -15 0
-83 -5 -17 0
-83 -5 -23 0
-83 -5 -25 0
-83 -5 -31 0
-83 -7 -13 0
-83 -7 -15 0
-83 -7 -17 0
-83 -7 -23 0
-83 -7 -25 0
-83 -7 -31 0
-83 -13 -15 0
-83 -13 -17 0
-83 -13 -23 0
-83 -13 -25 0
-83 -13 -31 0
-83 -15 -17 0
-83 -15 -23 0
-83 -15 -25 0
-83 -15 -31 0
-83 -17 -23 0
-83 -17 -25 0
-83 -17 -31 0
-83 -23 -25 0
-83 -23 -31 0
-83 -25 -31 0
-84 2 4 6 8 14 16 18 24 26 32 0
-84 -2 -4 0
-84 -2 -6 0
-84 -2 -8 0
-84 -2 -14 0
-84 -2 -16 0
-84 -2 -18 0
-84 -2 -24 0
-84 -2 -26 0
-84 -2 -32 0
-84 -4 -6 0
-84 -4 -8 0
-84 -4 -14 0
-84 -4 -16 0
-84 -4 -18 0
-84 -4 -24 0
-84 -4 -26 0
-84 -4 -32 0
-84 -6 -8 0
-84 -6 -14 0
-84 -6 -16 0
-84 -6 -18 0
-84 -6 -24 0
-84 -6 -26 0
-84 -6 -32 0
-84 -8 -14 0
-84 -8 -16 0
-84 -8 -18 0
-84 -8 -24 0
-84 -8 -26 0
-84 -8 -32 0
-84 -14 -16 0
-84 -14 -18 0
-84 -14 -24 0
-84 -14 -26 0
-84 -14 -32 0
-84 -16 -18 0
-84 -16 -24 0
-84 -16 -26 0
-84 -16 -32 0
-84 -18 -24 0
-84 -18 -26 0
-84 -18 -32 0
-84 -24 -26 0
-84 -24 -32 0
-84 -26 -32 0
