c CFON* coloring of the Kneser graph K(7,3) with 1 color(s)
c vertices: the 3-subsets of 1..7 in lexicographic order, numbered from 0
c x(v,c) = variable v*1 + c                 'vertex v has color c'
c u(v,c) = variable 35 + v*1 + c       'v sees color c exactly once'
p cnf 70 280
36 0
-36 32 33 34 35 0
-36 -32 -33 0
-36 -32 -34 0
-36 -32 -35 0
-36 -33 -34 0
-36 -33 -35 0
-36 -34 -35 0
37 0
-37 29 30 31 35 0
-37 -29 -30 0
-37 -29 -31 0
-37 -29 -35 0
-37 -30 -31 0
-37 -30 -35 0
-37 -31 -35 0
38 0
-38 27 28 31 34 0
-38 -27 -28 0
-38 -27 -31 0
-38 -27 -34 0
-38 -28 -31 0
-38 -28 -34 0
-38 -31 -34 0
39 0
-39 26 28 30 33 0
-39 -26 -28 0
-39 -26 -30 0
-39 -26 -33 0
-39 -28 -30 0
-39 -28 -33 0
-39 -30 -33 0
40 0
-40 26 27 29 32 0
-40 -26 -27 0
-40 -26 -29 0
-40 -26 -32 0
-40 -27 -29 0
-40 -27 -32 0
-40 -29 -32 0
41 0
-41 23 24 25 35 0
-41 -23 -24 0
-41 -23 -25 0
-41 -23 -35 0
-41 -24 -25 0
-41 -24 -35 0
-41 -25 -35 0
42 0
-42 21 22 25 34 0
-42 -21 -22 0
-42 -21 -25 0
-42 -21 -34 0
-42 -22 -25 0
-42 -22 -34 0
-42 -25 -34 0
43 0
-43 20 22 24 33 0
-43 -20 -22 0
-43 -20 -24 0
-43 -20 -33 0
-43 -22 -24 0
-43 -22 -33 0
-43 -24 -33 0
44 0
-44 20 21 23 32 0
-44 -20 -21 0
-44 -20 -23 0
-44 -20 -32 0
-44 -21 -23 0
-44 -21 -32 0
-44 -23 -32 0
45 0
-45 18 19 25 31 0
-45 -18 -19 0
-45 -18 -25 0
-45 -18 -31 0
-45 -19 -25 0
-45 -19 -31 0
-45 -25 -31 0
46 0
-46 17 19 24 30 0
-46 -17 -19 0
-46 -17 -24 0
-46 -17 -30 0
-46 -19 -24 0
-46 -19 -30 0
-46 -24 -30 0
47 0
-47 17 18 23 29 0
-47 -17 -18 0
-47 -17 -23 0
-47 -17 -29 0
-47 -18 -23 0
-47 -18 -29 0
-47 -23 -29 0
48 0
-48 16 19 22 28 0
-48 -16 -19 0
-48 -16 -22 0
-48 -16 -28 0
-48 -19 -22 0
-48 -19 -28 0
-48 -22 -28 0
49 0
-49 16 18 21 27 0
-49 -16 -18 0
-49 -16 -21 0
-49 -16 -27 0
-49 -18 -21 0
-49 -18 -27 0
-49 -21 -27 0
50 0
-50 16 17 20 26 0
-50 -16 -17 0
-50 -16 -20 0
-50 -16 -26 0
-50 -17 -20 0
-50 -17 -26 0
-50 -20 -26 0
51 0
-51 13 14 15 35 0
-51 -13 -14 0
-51 -13 -15 0
-51 -13 -35 0
-51 -14 -15 0
-51 -14 -35 0
-51 -15 -35 0
52 0
-52 11 12 15 34 0
-52 -11 -12 0
-52 -11 -15 0
-52 -11 -34 0
-52 -12 -15 0
-52 -12 -34 0
-52 -15 -34 0
53 0
-53 10 12 14 33 0
-53 -10 -12 0
-53 -10 -14 0
-53 -10 -33 0
-53 -12 -14 0
-53 -12 -33 0
-53 -14 -33 0
54 0
-54 10 11 13 32 0
-54 -10 -11 0
-54 -10 -13 0
-54 -10 -32 0
-54 -11 -13 0
-54 -11 -32 0
-54 -13 -32 0
55 0
-55 8 9 15 31 0
-55 -8 -9 0
-55 -8 -15 0
-55 -8 -31 0
-55 -9 -15 0
-55 -9 -31 0
-55 -15 -31 0
56 0
-56 7 9 14 30 0
-56 -7 -9 0
-56 -7 -14 0
-56 -7 -30 0
-56 -9 -14 0
-56 -9 -30 0
-56 -14 -30 0
57 0
-57 7 8 13 29 0
-57 -7 -8 0
-57 -7 -13 0
-57 -7 -29 0
-57 -8 -13 0
-57 -8 -29 0
-57 -13 -29 0
58 0
-58 6 9 12 28 0
-58 -6 -9 0
-58 -6 -12 0
-58 -6 -28 0
-58 -9 -12 0
-58 -9 -28 0
-58 -12 -28 0
59 0
-59 6 8 11 27 0
-59 -6 -8 0
-59 -6 -11 0
-59 -6 -27 0
-59 -8 -11 0
-59 -8 -27 0
-59 -11 -27 0
60 0
-60 6 7 10 26 0
-60 -6 -7 0
-60 -6 -10 0
-60 -6 -26 0
-60 -7 -10 0
-60 -7 -26 0
-60 -10 -26 0
61 0
-61 4 5 15 25 0
-61 -4 -5 0
-61 -4 -15 0
-61 -4 -25 0
-61 -5 -15 0
-61 -5 -25 0
-61 -15 -25 0
62 0
-62 3 5 14 24 0
-62 -3 -5 0
-62 -3 -14 0
-62 -3 -24 0
-62 -5 -14 0
-62 -5 -24 0
-62 -14 -24 0
63 0
-63 3 4 13 23 0
-63 -3 -4 0
-63 -3 -13 0
-63 -3 -23 0
-63 -4 -13 0
-63 -4 -23 0
-63 -13 -23 0
64 0
-64 2 5 12 22 0
-64 -2 -5 0
-64 -2 -12 0
-64 -2 -22 0
-64 -5 -12 0
-64 -5 -22 0
-64 -12 -22 0
65 0
-65 2 4 11 21 0
-65 -2 -4 0
-65 -2 -11 0
-65 -2 -21 0
-65 -4 -11 0
-65 -4 -21 0
-65 -11 -21 0
66 0
-66 2 3 10 20 0
-66 -2 -3 0
-66 -2 -10 0
-66 -2 -20 0
-66 -3 -10 0
-66 -3 -20 0
-66 -10 -20 0
67 0
-67 1 5 9 19 0
-67 -1 -5 0
-67 -1 -9 0
-67 -1 -19 0
-67 -5 -9 0
-67 -5 -19 0
-67 -9 -19 0
68 0
-68 1 4 8 18 0
-68 -1 -4 0
-68 -1 -8 0
-68 -1 -18 0
-68 -4 -8 0
-68 -4 -18 0
-68 -8 -18 0
69 0
-69 1 3 7 17 0
-69 -1 -3 0
-69 -1 -7 0
-69 -1 -17 0
-69 -3 -7 0
-69 -3 -17 0
-69 -7 -17 0
70 0
-70 1 2 6 16 0
-70 -1 -2 0
-70 -1 -6 0
-70 -1 -16 0
-70 -2 -6 0
-70 -2 -16 0
-70 -6 -16 0
