c CFON* coloring of the Kneser graph K(8,2) with 2 color(s)
c vertices: the 2-subsets of 1..8 in lexicographic order, numbered from 0
c x(v,c) = variable v*2 + c                 'vertex v has color c'
c u(v,c) = variable 56 + v*2 + c       'v sees color c exactly once'
p cnf 112 5992
-1 -2 0
57 58 0
-57 27 29 31 33 35 37 39 41 43 45 47 49 51 53 55 0
-57 -27 -29 0
-57 -27 -31 0
-57 -27 -33 0
-57 -27 -35 0
-57 -27 -37 0
-57 -27 -39 0
-57 -27 -41 0
-57 -27 -43 0
-57 -27 -45 0
-57 -27 -47 0
-57 -27 -49 0
-57 -27 -51 0
-57 -27 -53 0
-57 -27 -55 0
-57 -29 -31 0
-57 -29 -33 0
-57 -29 -35 0
-57 -29 -37 0
-57 -29 -39 0
-57 -29 -41 0
-57 -29 -43 0
-57 -29 -45 0
-57 -29 -47 0
-57 -29 -49 0
-57 -29 -51 0
-57 -29 -53 0
-57 -29 -55 0
-57 -31 -33 0
-57 -31 -35 0
-57 -31 -37 0
-57 -31 -39 0
-57 -31 -41 0
-57 -31 -43 0
-57 -31 -45 0
-57 -31 -47 0
-57 -31 -49 0
-57 -31 -51 0
-57 -31 -53 0
-57 -31 -55 0
-57 -33 -35 0
-57 -33 -37 0
-57 -33 -39 0
-57 -33 -41 0
-57 -33 -43 0
-57 -33 -45 0
-57 -33 -47 0
-57 -33 -49 0
-57 -33 -51 0
-57 -33 -53 0
-57 -33 -55 0
-57 -35 -37 0
-57 -35 -39 0
-57 -35 -41 0
-57 -35 -43 0
-57 -35 -45 0
-57 -35 -47 0
-57 -35 -49 0
-57 -35 -51 0
-57 -35 -53 0
-57 -35 -55 0
-57 -37 -39 0
-57 -37 -41 0
-57 -37 -43 0
-57 -37 -45 0
-57 -37 -47 0
-57 -37 -49 0
-57 -37 -51 0
-57 -37 -53 0
-57 -37 -55 0
-57 -39 -41 0
-57 -39 -43 0
-57 -39 -45 0
-57 -39 -47 0
-57 -39 -49 0
-57 -39 -51 0
-57 -39 -53 0
-57 -39 -55 0
-57 -41 -43 0
-57 -41 -45 0
-57 -41 -47 0
-57 -41 -49 0
-57 -41 -51 0
-57 -41 -53 0
-57 -41 -55 0
-57 -43 -45 0
-57 -43 -47 0
-57 -43 -49 0
-57 -43 -51 0
-57 -43 -53 0
-57 -43 -55 0
-57 -45 -47 0
-57 -45 -49 0
-57 -45 -51 0
-57 -45 -53 0
-57 -45 -55 0
-57 -47 -49 0
-57 -47 -51 0
-57 -47 -53 0
-57 -47 -55 0
-57 -49 -51 0
-57 -49 -53 0
-57 -49 -55 0
-57 -51 -53 0
-57 -51 -55 0
-57 -53 -55 0
-58 28 30 32 34 36 38 40 42 44 46 48 50 52 54 56 0
-58 -28 -30 0
-58 -28 -32 0
-58 -28 -34 0
-58 -28 -36 0
-58 -28 -38 0
-58 -28 -40 0
-58 -28 -42 0
-58 -28 -44 0
-58 -28 -46 0
-58 -28 -48 0
-58 -28 -50 0
-58 -28 -52 0
-58 -28 -54 0
-58 -28 -56 0
-58 -30 -32 0
-58 -30 -34 0
-58 -30 -36 0
-58 -30 -38 0
-58 -30 -40 0
-58 -30 -42 0
-58 -30 -44 0
-58 -30 -46 0
-58 -30 -48 0
-58 -30 -50 0
-58 -30 -52 0
-58 -30 -54 0
-58 -30 -56 0
-58 -32 -34 0
-58 -32 -36 0
-58 -32 -38 0
-58 -32 -40 0
-58 -32 -42 0
-58 -32 -44 0
-58 -32 -46 0
-58 -32 -48 0
-58 -32 -50 0
-58 -32 -52 0
-58 -32 -54 0
-58 -32 -56 0
-58 -34 -36 0
-58 -34 -38 0
-58 -34 -40 0
-58 -34 -42 0
-58 -34 -44 0
-58 -34 -46 0
-58 -34 -48 0
-58 -34 -50 0
-58 -34 -52 0
-58 -34 -54 0
-58 -34 -56 0
-58 -36 -38 0
-58 -36 -40 0
-58 -36 -42 0
-58 -36 -44 0
-58 -36 -46 0
-58 -36 -48 0
-58 -36 -50 0
-58 -36 -52 0
-58 -36 -54 0
-58 -36 -56 0
-58 -38 -40 0
-58 -38 -42 0
-58 -38 -44 0
-58 -38 -46 0
-58 -38 -48 0
-58 -38 -50 0
-58 -38 -52 0
-58 -38 -54 0
-58 -38 -56 0
-58 -40 -42 0
-58 -40 -44 0
-58 -40 -46 0
-58 -40 -48 0
-58 -40 -50 0
-58 -40 -52 0
-58 -40 -54 0
-58 -40 -56 0
-58 -42 -44 0
-58 -42 -46 0
-58 -42 -48 0
-58 -42 -50 0
-58 -42 -52 0
-58 -42 -54 0
-58 -42 -56 0
-58 -44 -46 0
-58 -44 -48 0
-58 -44 -50 0
-58 -44 -52 0
-58 -44 -54 0
-58 -44 -56 0
-58 -46 -48 0
-58 -46 -50 0
-58 -46 -52 0
-58 -46 -54 0
-58 -46 -56 0
-58 -48 -50 0
-58 -48 -52 0
-58 -48 -54 0
-58 -48 -56 0
-58 -50 -52 0
-58 -50 -54 0
-58 -50 -56 0
-58 -52 -54 0
-58 -52 -56 0
-58 -54 -56 0
-3 -4 0
59 60 0
-59 17 19 21 23 25 37 39 41 43 45 47 49 51 53 55 0
-59 -17 -19 0
-59 -17 -21 0
-59 -17 -23 0
-59 -17 -25 0
-59 -17 -37 0
-59 -17 -39 0
-59 -17 -41 0
-59 -17 -43 0
-59 -17 -45 0
-59 -17 -47 0
-59 -17 -49 0
-59 -17 -51 0
-59 -17 -53 0
-59 -17 -55 0
-59 -19 -21 0
-59 -19 -23 0
-59 -19 -25 0
-59 -19 -37 0
-59 -19 -39 0
-59 -19 -41 0
-59 -19 -43 0
-59 -19 -45 0
-59 -19 -47 0
-59 -19 -49 0
-59 -19 -51 0
-59 -19 -53 0
-59 -19 -55 0
-59 -21 -23 0
-59 -21 -25 0
-59 -21 -37 0
-59 -21 -39 0
-59 -21 -41 0
-59 -21 -43 0
-59 -21 -45 0
-59 -21 -47 0
-59 -21 -49 0
-59 -21 -51 0
-59 -21 -53 0
-59 -21 -55 0
-59 -23 -25 0
-59 -23 -37 0
-59 -23 -39 0
-59 -23 -41 0
-59 -23 -43 0
-59 -23 -45 0
-59 -23 -47 0
-59 -23 -49 0
-59 -23 -51 0
-59 -23 -53 0
-59 -23 -55 0
-59 -25 -37 0
-59 -25 -39 0
-59 -25 -41 0
-59 -25 -43 0
-59 -25 -45 0
-59 -25 -47 0
-59 -25 -49 0
-59 -25 -51 0
-59 -25 -53 0
-59 -25 -55 0
-59 -37 -39 0
-59 -37 -41 0
-59 -37 -43 0
-59 -37 -45 0
-59 -37 -47 0
-59 -37 -49 0
-59 -37 -51 0
-59 -37 -53 0
-59 -37 -55 0
-59 -39 -41 0
-59 -39 -43 0
-59 -39 -45 0
-59 -39 -47 0
-59 -39 -49 0
-59 -39 -51 0
-59 -39 -53 0
-59 -39 -55 0
-59 -41 -43 0
-59 -41 -45 0
-59 -41 -47 0
-59 -41 -49 0
-59 -41 -51 0
-59 -41 -53 0
-59 -41 -55 0
-59 -43 -45 0
-59 -43 -47 0
-59 -43 -49 0
-59 -43 -51 0
-59 -43 -53 0
-59 -43 -55 0
-59 -45 -47 0
-59 -45 -49 0
-59 -45 -51 0
-59 -45 -53 0
-59 -45 -55 0
-59 -47 -49 0
-59 -47 -51 0
-59 -47 -53 0
-59 -47 -55 0
-59 -49 -51 0
-59 -49 -53 0
-59 -49 -55 0
-59 -51 -53 0
-59 -51 -55 0
-59 -53 -55 0
-60 18 20 22 24 26 38 40 42 44 46 48 50 52 54 56 0
-60 -18 -20 0
-60 -18 -22 0
-60 -18 -24 0
-60 -18 -26 0
-60 -18 -38 0
-60 -18 -40 0
-60 -18 -42 0
-60 -18 -44 0
-60 -18 -46 0
-60 -18 -48 0
-60 -18 -50 0
-60 -18 -52 0
-60 -18 -54 0
-60 -18 -56 0
-60 -20 -22 0
-60 -20 -24 0
-60 -20 -26 0
-60 -20 -38 0
-60 -20 -40 0
-60 -20 -42 0
-60 -20 -44 0
-60 -20 -46 0
-60 -20 -48 0
-60 -20 -50 0
-60 -20 -52 0
-60 -20 -54 0
-60 -20 -56 0
-60 -22 -24 0
-60 -22 -26 0
-60 -22 -38 0
-60 -22 -40 0
-60 -22 -42 0
-60 -22 -44 0
-60 -22 -46 0
-60 -22 -48 0
-60 -22 -50 0
-60 -22 -52 0
-60 -22 -54 0
-60 -22 -56 0
-60 -24 -26 0
-60 -24 -38 0
-60 -24 -40 0
-60 -24 -42 0
-60 -24 -44 0
-60 -24 -46 0
-60 -24 -48 0
-60 -24 -50 0
-60 -24 -52 0
-60 -24 -54 0
-60 -24 -56 0
-60 -26 -38 0
-60 -26 -40 0
-60 -26 -42 0
-60 -26 -44 0
-60 -26 -46 0
-60 -26 -48 0
-60 -26 -50 0
-60 -26 -52 0
-60 -26 -54 0
-60 -26 -56 0
-60 -38 -40 0
-60 -38 -42 0
-60 -38 -44 0
-60 -38 -46 0
-60 -38 -48 0
-60 -38 -50 0
-60 -38 -52 0
-60 -38 -54 0
-60 -38 -56 0
-60 -40 -42 0
-60 -40 -44 0
-60 -40 -46 0
-60 -40 -48 0
-60 -40 -50 0
-60 -40 -52 0
-60 -40 -54 0
-60 -40 -56 0
-60 -42 -44 0
-60 -42 -46 0
-60 -42 -48 0
-60 -42 -50 0
-60 -42 -52 0
-60 -42 -54 0
-60 -42 -56 0
-60 -44 -46 0
-60 -44 -48 0
-60 -44 -50 0
-60 -44 -52 0
-60 -44 -54 0
-60 -44 -56 0
-60 -46 -48 0
-60 -46 -50 0
-60 -46 -52 0
-60 -46 -54 0
-60 -46 -56 0
-60 -48 -50 0
-60 -48 -52 0
-60 -48 -54 0
-60 -48 -56 0
-60 -50 -52 0
-60 -50 -54 0
-60 -50 -56 0
-60 -52 -54 0
-60 -52 -56 0
-60 -54 -56 0
-5 -6 0
61 62 0
-61 15 19 21 23 25 29 31 33 35 45 47 49 51 53 55 0
-61 -15 -19 0
-61 -15 -21 0
-61 -15 -23 0
-61 -15 -25 0
-61 -15 -29 0
-61 -15 -31 0
-61 -15 -33 0
-61 -15 -35 0
-61 -15 -45 0
-61 -15 -47 0
-61 -15 -49 0
-61 -15 -51 0
-61 -15 -53 0
-61 -15 -55 0
-61 -19 -21 0
-61 -19 -23 0
-61 -19 -25 0
-61 -19 -29 0
-61 -19 -31 0
-61 -19 -33 0
-61 -19 -35 0
-61 -19 -45 0
-61 -19 -47 0
-61 -19 -49 0
-61 -19 -51 0
-61 -19 -53 0
-61 -19 -55 0
-61 -21 -23 0
-61 -21 -25 0
-61 -21 -29 0
-61 -21 -31 0
-61 -21 -33 0
-61 -21 -35 0
-61 -21 -45 0
-61 -21 -47 0
-61 -21 -49 0
-61 -21 -51 0
-61 -21 -53 0
-61 -21 -55 0
-61 -23 -25 0
-61 -23 -29 0
-61 -23 -31 0
-61 -23 -33 0
-61 -23 -35 0
-61 -23 -45 0
-61 -23 -47 0
-61 -23 -49 0
-61 -23 -51 0
-61 -23 -53 0
-61 -23 -55 0
-61 -25 -29 0
-61 -25 -31 0
-61 -25 -33 0
-61 -25 -35 0
-61 -25 -45 0
-61 -25 -47 0
-61 -25 -49 0
-61 -25 -51 0
-61 -25 -53 0
-61 -25 -55 0
-61 -29 -31 0
-61 -29 -33 0
-61 -29 -35 0
-61 -29 -45 0
-61 -29 -47 0
-61 -29 -49 0
-61 -29 -51 0
-61 -29 -53 0
-61 -29 -55 0
-61 -31 -33 0
-61 -31 -35 0
-61 -31 -45 0
-61 -31 -47 0
-61 -31 -49 0
-61 -31 -51 0
-61 -31 -53 0
-61 -31 -55 0
-61 -33 -35 0
-61 -33 -45 0
-61 -33 -47 0
-61 -33 -49 0
-61 -33 -51 0
-61 -33 -53 0
-61 -33 -55 0
-61 -35 -45 0
-61 -35 -47 0
-61 -35 -49 0
-61 -35 -51 0
-61 -35 -53 0
-61 -35 -55 0
-61 -45 -47 0
-61 -45 -49 0
-61 -45 -51 0
-61 -45 -53 0
-61 -45 -55 0
-61 -47 -49 0
-61 -47 -51 0
-61 -47 -53 0
-61 -47 -55 0
-61 -49 -51 0
-61 -49 -53 0
-61 -49 -55 0
-61 -51 -53 0
-61 -51 -55 0
-61 -53 -55 0
-62 16 20 22 24 26 30 32 34 36 46 48 50 52 54 56 0
-62 -16 -20 0
-62 -16 -22 0
-62 -16 -24 0
-62 -16 -26 0
-62 -16 -30 0
-62 -16 -32 0
-62 -16 -34 0
-62 -16 -36 0
-62 -16 -46 0
-62 -16 -48 0
-62 -16 -50 0
-62 -16 -52 0
-62 -16 -54 0
-62 -16 -56 0
-62 -20 -22 0
-62 -20 -24 0
-62 -20 -26 0
-62 -20 -30 0
-62 -20 -32 0
-62 -20 -34 0
-62 -20 -36 0
-62 -20 -46 0
-62 -20 -48 0
-62 -20 -50 0
-62 -20 -52 0
-62 -20 -54 0
-62 -20 -56 0
-62 -22 -24 0
-62 -22 -26 0
-62 -22 -30 0
-62 -22 -32 0
-62 -22 -34 0
-62 -22 -36 0
-62 -22 -46 0
-62 -22 -48 0
-62 -22 -50 0
-62 -22 -52 0
-62 -22 -54 0
-62 -22 -56 0
-62 -24 -26 0
-62 -24 -30 0
-62 -24 -32 0
-62 -24 -34 0
-62 -24 -36 0
-62 -24 -46 0
-62 -24 -48 0
-62 -24 -50 0
-62 -24 -52 0
-62 -24 -54 0
-62 -24 -56 0
-62 -26 -30 0
-62 -26 -32 0
-62 -26 -34 0
-62 -26 -36 0
-62 -26 -46 0
-62 -26 -48 0
-62 -26 -50 0
-62 -26 -52 0
-62 -26 -54 0
-62 -26 -56 0
-62 -30 -32 0
-62 -30 -34 0
-62 -30 -36 0
-62 -30 -46 0
-62 -30 -48 0
-62 -30 -50 0
-62 -30 -52 0
-62 -30 -54 0
-62 -30 -56 0
-62 -32 -34 0
-62 -32 -36 0
-62 -32 -46 0
-62 -32 -48 0
-62 -32 -50 0
-62 -32 -52 0
-62 -32 -54 0
-62 -32 -56 0
-62 -34 -36 0
-62 -34 -46 0
-62 -34 -48 0
-62 -34 -50 0
-62 -34 -52 0
-62 -34 -54 0
-62 -34 -56 0
-62 -36 -46 0
-62 -36 -48 0
-62 -36 -50 0
-62 -36 -52 0
-62 -36 -54 0
-62 -36 -56 0
-62 -46 -48 0
-62 -46 -50 0
-62 -46 -52 0
-62 -46 -54 0
-62 -46 -56 0
-62 -48 -50 0
-62 -48 -52 0
-62 -48 -54 0
-62 -48 -56 0
-62 -50 -52 0
-62 -50 -54 0
-62 -50 -56 0
-62 -52 -54 0
-62 -52 -56 0
-62 -54 -56 0
-7 -8 0
63 64 0
-63 15 17 21 23 25 27 31 33 35 39 41 43 51 53 55 0
-63 -15 -17 0
-63 -15 -21 0
-63 -15 -23 0
-63 -15 -25 0
-63 -15 -27 0
-63 -15 -31 0
-63 -15 -33 0
-63 -15 -35 0
-63 -15 -39 0
-63 -15 -41 0
-63 -15 -43 0
-63 -15 -51 0
-63 -15 -53 0
-63 -15 -55 0
-63 -17 -21 0
-63 -17 -23 0
-63 -17 -25 0
-63 -17 -27 0
-63 -17 -31 0
-63 -17 -33 0
-63 -17 -35 0
-63 -17 -39 0
-63 -17 -41 0
-63 -17 -43 0
-63 -17 -51 0
-63 -17 -53 0
-63 -17 -55 0
-63 -21 -23 0
-63 -21 -25 0
-63 -21 -27 0
-63 -21 -31 0
-63 -21 -33 0
-63 -21 -35 0
-63 -21 -39 0
-63 -21 -41 0
-63 -21 -43 0
-63 -21 -51 0
-63 -21 -53 0
-63 -21 -55 0
-63 -23 -25 0
-63 -23 -27 0
-63 -23 -31 0
-63 -23 -33 0
-63 -23 -35 0
-63 -23 -39 0
-63 -23 -41 0
-63 -23 -43 0
-63 -23 -51 0
-63 -23 -53 0
-63 -23 -55 0
-63 -25 -27 0
-63 -25 -31 0
-63 -25 -33 0
-63 -25 -35 0
-63 -25 -39 0
-63 -25 -41 0
-63 -25 -43 0
-63 -25 -51 0
-63 -25 -53 0
-63 -25 -55 0
-63 -27 -31 0
-63 -27 -33 0
-63 -27 -35 0
-63 -27 -39 0
-63 -27 -41 0
-63 -27 -43 0
-63 -27 -51 0
-63 -27 -53 0
-63 -27 -55 0
-63 -31 -33 0
-63 -31 -35 0
-63 -31 -39 0
-63 -31 -41 0
-63 -31 -43 0
-63 -31 -51 0
-63 -31 -53 0
-63 -31 -55 0
-63 -33 -35 0
-63 -33 -39 0
-63 -33 -41 0
-63 -33 -43 0
-63 -33 -51 0
-63 -33 -53 0
-63 -33 -55 0
-63 -35 -39 0
-63 -35 -41 0
-63 -35 -43 0
-63 -35 -51 0
-63 -35 -53 0
-63 -35 -55 0
-63 -39 -41 0
-63 -39 -43 0
-63 -39 -51 0
-63 -39 -53 0
-63 -39 -55 0
-63 -41 -43 0
-63 -41 -51 0
-63 -41 -53 0
-63 -41 -55 0
-63 -43 -51 0
-63 -43 -53 0
-63 -43 -55 0
-63 -51 -53 0
-63 -51 -55 0
-63 -53 -55 0
-64 16 18 22 24 26 28 32 34 36 40 42 44 52 54 56 0
-64 -16 -18 0
-64 -16 -22 0
-64 -16 -24 0
-64 -16 -26 0
-64 -16 -28 0
-64 -16 -32 0
-64 -16 -34 0
-64 -16 -36 0
-64 -16 -40 0
-64 -16 -42 0
-64 -16 -44 0
-64 -16 -52 0
-64 -16 -54 0
-64 -16 -56 0
-64 -18 -22 0
-64 -18 -24 0
-64 -18 -26 0
-64 -18 -28 0
-64 -18 -32 0
-64 -18 -34 0
-64 -18 -36 0
-64 -18 -40 0
-64 -18 -42 0
-64 -18 -44 0
-64 -18 -52 0
-64 -18 -54 0
-64 -18 -56 0
-64 -22 -24 0
-64 -22 -26 0
-64 -22 -28 0
-64 -22 -32 0
-64 -22 -34 0
-64 -22 -36 0
-64 -22 -40 0
-64 -22 -42 0
-64 -22 -44 0
-64 -22 -52 0
-64 -22 -54 0
-64 -22 -56 0
-64 -24 -26 0
-64 -24 -28 0
-64 -24 -32 0
-64 -24 -34 0
-64 -24 -36 0
-64 -24 -40 0
-64 -24 -42 0
-64 -24 -44 0
-64 -24 -52 0
-64 -24 -54 0
-64 -24 -56 0
-64 -26 -28 0
-64 -26 -32 0
-64 -26 -34 0
-64 -26 -36 0
-64 -26 -40 0
-64 -26 -42 0
-64 -26 -44 0
-64 -26 -52 0
-64 -26 -54 0
-64 -26 -56 0
-64 -28 -32 0
-64 -28 -34 0
-64 -28 -36 0
-64 -28 -40 0
-64 -28 -42 0
-64 -28 -44 0
-64 -28 -52 0
-64 -28 -54 0
-64 -28 -56 0
-64 -32 -34 0
-64 -32 -36 0
-64 -32 -40 0
-64 -32 -42 0
-64 -32 -44 0
-64 -32 -52 0
-64 -32 -54 0
-64 -32 -56 0
-64 -34 -36 0
-64 -34 -40 0
-64 -34 -42 0
-64 -34 -44 0
-64 -34 -52 0
-64 -34 -54 0
-64 -34 -56 0
-64 -36 -40 0
-64 -36 -42 0
-64 -36 -44 0
-64 -36 -52 0
-64 -36 -54 0
-64 -36 -56 0
-64 -40 -42 0
-64 -40 -44 0
-64 -40 -52 0
-64 -40 -54 0
-64 -40 -56 0
-64 -42 -44 0
-64 -42 -52 0
-64 -42 -54 0
-64 -42 -56 0
-64 -44 -52 0
-64 -44 -54 0
-64 -44 -56 0
-64 -52 -54 0
-64 -52 -56 0
-64 -54 -56 0
-9 -10 0
65 66 0
-65 15 17 19 23 25 27 29 33 35 37 41 43 47 49 55 0
-65 -15 -17 0
-65 -15 -19 0
-65 -15 -23 0
-65 -15 -25 0
-65 -15 -27 0
-65 -15 -29 0
-65 -15 -33 0
-65 -15 -35 0
-65 -15 -37 0
-65 -15 -41 0
-65 -15 -43 0
-65 -15 -47 0
-65 -15 -49 0
-65 -15 -55 0
-65 -17 -19 0
-65 -17 -23 0
-65 -17 -25 0
-65 -17 -27 0
-65 -17 -29 0
-65 -17 -33 0
-65 -17 -35 0
-65 -17 -37 0
-65 -17 -41 0
-65 -17 -43 0
-65 -17 -47 0
-65 -17 -49 0
-65 -17 -55 0
-65 -19 -23 0
-65 -19 -25 0
-65 -19 -27 0
-65 -19 -29 0
-65 -19 -33 0
-65 -19 -35 0
-65 -19 -37 0
-65 -19 -41 0
-65 -19 -43 0
-65 -19 -47 0
-65 -19 -49 0
-65 -19 -55 0
-65 -23 -25 0
-65 -23 -27 0
-65 -23 -29 0
-65 -23 -33 0
-65 -23 -35 0
-65 -23 -37 0
-65 -23 -41 0
-65 -23 -43 0
-65 -23 -47 0
-65 -23 -49 0
-65 -23 -55 0
-65 -25 -27 0
-65 -25 -29 0
-65 -25 -33 0
-65 -25 -35 0
-65 -25 -37 0
-65 -25 -41 0
-65 -25 -43 0
-65 -25 -47 0
-65 -25 -49 0
-65 -25 -55 0
-65 -27 -29 0
-65 -27 -33 0
-65 -27 -35 0
-65 -27 -37 0
-65 -27 -41 0
-65 -27 -43 0
-65 -27 -47 0
-65 -27 -49 0
-65 -27 -55 0
-65 -29 -33 0
-65 -29 -35 0
-65 -29 -37 0
-65 -29 -41 0
-65 -29 -43 0
-65 -29 -47 0
-65 -29 -49 0
-65 -29 -55 0
-65 -33 -35 0
-65 -33 -37 0
-65 -33 -41 0
-65 -33 -43 0
-65 -33 -47 0
-65 -33 -49 0
-65 -33 -55 0
-65 -35 -37 0
-65 -35 -41 0
-65 -35 -43 0
-65 -35 -47 0
-65 -35 -49 0
-65 -35 -55 0
-65 -37 -41 0
-65 -37 -43 0
-65 -37 -47 0
-65 -37 -49 0
-65 -37 -55 0
-65 -41 -43 0
-65 -41 -47 0
-65 -41 -49 0
-65 -41 -55 0
-65 -43 -47 0
-65 -43 -49 0
-65 -43 -55 0
-65 -47 -49 0
-65 -47 -55 0
-65 -49 -55 0
-66 16 18 20 24 26 28 30 34 36 38 42 44 48 50 56 0
-66 -16 -18 0
-66 -16 -20 0
-66 -16 -24 0
-66 -16 -26 0
-66 -16 -28 0
-66 -16 -30 0
-66 -16 -34 0
-66 -16 -36 0
-66 -16 -38 0
-66 -16 -42 0
-66 -16 -44 0
-66 -16 -48 0
-66 -16 -50 0
-66 -16 -56 0
-66 -18 -20 0
-66 -18 -24 0
-66 -18 -26 0
-66 -18 -28 0
-66 -18 -30 0
-66 -18 -34 0
-66 -18 -36 0
-66 -18 -38 0
-66 -18 -42 0
-66 -18 -44 0
-66 -18 -48 0
-66 -18 -50 0
-66 -18 -56 0
-66 -20 -24 0
-66 -20 -26 0
-66 -20 -28 0
-66 -20 -30 0
-66 -20 -34 0
-66 -20 -36 0
-66 -20 -38 0
-66 -20 -42 0
-66 -20 -44 0
-66 -20 -48 0
-66 -20 -50 0
-66 -20 -56 0
-66 -24 -26 0
-66 -24 -28 0
-66 -24 -30 0
-66 -24 -34 0
-66 -24 -36 0
-66 -24 -38 0
-66 -24 -42 0
-66 -24 -44 0
-66 -24 -48 0
-66 -24 -50 0
-66 -24 -56 0
-66 -26 -28 0
-66 -26 -30 0
-66 -26 -34 0
-66 -26 -36 0
-66 -26 -38 0
-66 -26 -42 0
-66 -26 -44 0
-66 -26 -48 0
-66 -26 -50 0
-66 -26 -56 0
-66 -28 -30 0
-66 -28 -34 0
-66 -28 -36 0
-66 -28 -38 0
-66 -28 -42 0
-66 -28 -44 0
-66 -28 -48 0
-66 -28 -50 0
-66 -28 -56 0
-66 -30 -34 0
-66 -30 -36 0
-66 -30 -38 0
-66 -30 -42 0
-66 -30 -44 0
-66 -30 -48 0
-66 -30 -50 0
-66 -30 -56 0
-66 -34 -36 0
-66 -34 -38 0
-66 -34 -42 0
-66 -34 -44 0
-66 -34 -48 0
-66 -34 -50 0
-66 -34 -56 0
-66 -36 -38 0
-66 -36 -42 0
-66 -36 -44 0
-66 -36 -48 0
-66 -36 -50 0
-66 -36 -56 0
-66 -38 -42 0
-66 -38 -44 0
-66 -38 -48 0
-66 -38 -50 0
-66 -38 -56 0
-66 -42 -44 0
-66 -42 -48 0
-66 -42 -50 0
-66 -42 -56 0
-66 -44 -48 0
-66 -44 -50 0
-66 -44 -56 0
-66 -48 -50 0
-66 -48 -56 0
-66 -50 -56 0
-11 -12 0
67 68 0
-67 15 17 19 21 25 27 29 31 35 37 39 43 45 49 53 0
-67 -15 -17 0
-67 -15 -19 0
-67 -15 -21 0
-67 -15 -25 0
-67 -15 -27 0
-67 -15 -29 0
-67 -15 -31 0
-67 -15 -35 0
-67 -15 -37 0
-67 -15 -39 0
-67 -15 -43 0
-67 -15 -45 0
-67 -15 -49 0
-67 -15 -53 0
-67 -17 -19 0
-67 -17 -21 0
-67 -17 -25 0
-67 -17 -27 0
-67 -17 -29 0
-67 -17 -31 0
-67 -17 -35 0
-67 -17 -37 0
-67 -17 -39 0
-67 -17 -43 0
-67 -17 -45 0
-67 -17 -49 0
-67 -17 -53 0
-67 -19 -21 0
-67 -19 -25 0
-67 -19 -27 0
-67 -19 -29 0
-67 -19 -31 0
-67 -19 -35 0
-67 -19 -37 0
-67 -19 -39 0
-67 -19 -43 0
-67 -19 -45 0
-67 -19 -49 0
-67 -19 -53 0
-67 -21 -25 0
-67 -21 -27 0
-67 -21 -29 0
-67 -21 -31 0
-67 -21 -35 0
-67 -21 -37 0
-67 -21 -39 0
-67 -21 -43 0
-67 -21 -45 0
-67 -21 -49 0
-67 -21 -53 0
-67 -25 -27 0
-67 -25 -29 0
-67 -25 -31 0
-67 -25 -35 0
-67 -25 -37 0
-67 -25 -39 0
-67 -25 -43 0
-67 -25 -45 0
-67 -25 -49 0
-67 -25 -53 0
-67 -27 -29 0
-67 -27 -31 0
-67 -27 -35 0
-67 -27 -37 0
-67 -27 -39 0
-67 -27 -43 0
-67 -27 -45 0
-67 -27 -49 0
-67 -27 -53 0
-67 -29 -31 0
-67 -29 -35 0
-67 -29 -37 0
-67 -29 -39 0
-67 -29 -43 0
-67 -29 -45 0
-67 -29 -49 0
-67 -29 -53 0
-67 -31 -35 0
-67 -31 -37 0
-67 -31 -39 0
-67 -31 -43 0
-67 -31 -45 0
-67 -31 -49 0
-67 -31 -53 0
-67 -35 -37 0
-67 -35 -39 0
-67 -35 -43 0
-67 -35 -45 0
-67 -35 -49 0
-67 -35 -53 0
-67 -37 -39 0
-67 -37 -43 0
-67 -37 -45 0
-67 -37 -49 0
-67 -37 -53 0
-67 -39 -43 0
-67 -39 -45 0
-67 -39 -49 0
-67 -39 -53 0
-67 -43 -45 0
-67 -43 -49 0
-67 -43 -53 0
-67 -45 -49 0
-67 -45 -53 0
-67 -49 -53 0
-68 16 18 20 22 26 28 30 32 36 38 40 44 46 50 54 0
-68 -16 -18 0
-68 -16 -20 0
-68 -16 -22 0
-68 -16 -26 0
-68 -16 -28 0
-68 -16 -30 0
-68 -16 -32 0
-68 -16 -36 0
-68 -16 -38 0
-68 -16 -40 0
-68 -16 -44 0
-68 -16 -46 0
-68 -16 -50 0
-68 -16 -54 0
-68 -18 -20 0
-68 -18 -22 0
-68 -18 -26 0
-68 -18 -28 0
-68 -18 -30 0
-68 -18 -32 0
-68 -18 -36 0
-68 -18 -38 0
-68 -18 -40 0
-68 -18 -44 0
-68 -18 -46 0
-68 -18 -50 0
-68 -18 -54 0
-68 -20 -22 0
-68 -20 -26 0
-68 -20 -28 0
-68 -20 -30 0
-68 -20 -32 0
-68 -20 -36 0
-68 -20 -38 0
-68 -20 -40 0
-68 -20 -44 0
-68 -20 -46 0
-68 -20 -50 0
-68 -20 -54 0
-68 -22 -26 0
-68 -22 -28 0
-68 -22 -30 0
-68 -22 -32 0
-68 -22 -36 0
-68 -22 -38 0
-68 -22 -40 0
-68 -22 -44 0
-68 -22 -46 0
-68 -22 -50 0
-68 -22 -54 0
-68 -26 -28 0
-68 -26 -30 0
-68 -26 -32 0
-68 -26 -36 0
-68 -26 -38 0
-68 -26 -40 0
-68 -26 -44 0
-68 -26 -46 0
-68 -26 -50 0
-68 -26 -54 0
-68 -28 -30 0
-68 -28 -32 0
-68 -28 -36 0
-68 -28 -38 0
-68 -28 -40 0
-68 -28 -44 0
-68 -28 -46 0
-68 -28 -50 0
-68 -28 -54 0
-68 -30 -32 0
-68 -30 -36 0
-68 -30 -38 0
-68 -30 -40 0
-68 -30 -44 0
-68 -30 -46 0
-68 -30 -50 0
-68 -30 -54 0
-68 -32 -36 0
-68 -32 -38 0
-68 -32 -40 0
-68 -32 -44 0
-68 -32 -46 0
-68 -32 -50 0
-68 -32 -54 0
-68 -36 -38 0
-68 -36 -40 0
-68 -36 -44 0
-68 -36 -46 0
-68 -36 -50 0
-68 -36 -54 0
-68 -38 -40 0
-68 -38 -44 0
-68 -38 -46 0
-68 -38 -50 0
-68 -38 -54 0
-68 -40 -44 0
-68 -40 -46 0
-68 -40 -50 0
-68 -40 -54 0
-68 -44 -46 0
-68 -44 -50 0
-68 -44 -54 0
-68 -46 -50 0
-68 -46 -54 0
-68 -50 -54 0
-13 -14 0
69 70 0
-69 15 17 19 21 23 27 29 31 33 37 39 41 45 47 51 0
-69 -15 -17 0
-69 -15 -19 0
-69 -15 -21 0
-69 -15 -23 0
-69 -15 -27 0
-69 -15 -29 0
-69 -15 -31 0
-69 -15 -33 0
-69 -15 -37 0
-69 -15 -39 0
-69 -15 -41 0
-69 -15 -45 0
-69 -15 -47 0
-69 -15 -51 0
-69 -17 -19 0
-69 -17 -21 0
-69 -17 -23 0
-69 -17 -27 0
-69 -17 -29 0
-69 -17 -31 0
-69 -17 -33 0
-69 -17 -37 0
-69 -17 -39 0
-69 -17 -41 0
-69 -17 -45 0
-69 -17 -47 0
-69 -17 -51 0
-69 -19 -21 0
-69 -19 -23 0
-69 -19 -27 0
-69 -19 -29 0
-69 -19 -31 0
-69 -19 -33 0
-69 -19 -37 0
-69 -19 -39 0
-69 -19 -41 0
-69 -19 -45 0
-69 -19 -47 0
-69 -19 -51 0
-69 -21 -23 0
-69 -21 -27 0
-69 -21 -29 0
-69 -21 -31 0
-69 -21 -33 0
-69 -21 -37 0
-69 -21 -39 0
-69 -21 -41 0
-69 -21 -45 0
-69 -21 -47 0
-69 -21 -51 0
-69 -23 -27 0
-69 -23 -29 0
-69 -23 -31 0
-69 -23 -33 0
-69 -23 -37 0
-69 -23 -39 0
-69 -23 -41 0
-69 -23 -45 0
-69 -23 -47 0
-69 -23 -51 0
-69 -27 -29 0
-69 -27 -31 0
-69 -27 -33 0
-69 -27 -37 0
-69 -27 -39 0
-69 -27 -41 0
-69 -27 -45 0
-69 -27 -47 0
-69 -27 -51 0
-69 -29 -31 0
-69 -29 -33 0
-69 -29 -37 0
-69 -29 -39 0
-69 -29 -41 0
-69 -29 -45 0
-69 -29 -47 0
-69 -29 -51 0
-69 -31 -33 0
-69 -31 -37 0
-69 -31 -39 0
-69 -31 -41 0
-69 -31 -45 0
-69 -31 -47 0
-69 -31 -51 0
-69 -33 -37 0
-69 -33 -39 0
-69 -33 -41 0
-69 -33 -45 0
-69 -33 -47 0
-69 -33 -51 0
-69 -37 -39 0
-69 -37 -41 0
-69 -37 -45 0
-69 -37 -47 0
-69 -37 -51 0
-69 -39 -41 0
-69 -39 -45 0
-69 -39 -47 0
-69 -39 -51 0
-69 -41 -45 0
-69 -41 -47 0
-69 -41 -51 0
-69 -45 -47 0
-69 -45 -51 0
-69 -47 -51 0
-70 16 18 20 22 24 28 30 32 34 38 40 42 46 48 52 0
-70 -16 -18 0
-70 -16 -20 0
-70 -16 -22 0
-70 -16 -24 0
-70 -16 -28 0
-70 -16 -30 0
-70 -16 -32 0
-70 -16 -34 0
-70 -16 -38 0
-70 -16 -40 0
-70 -16 -42 0
-70 -16 -46 0
-70 -16 -48 0
-70 -16 -52 0
-70 -18 -20 0
-70 -18 -22 0
-70 -18 -24 0
-70 -18 -28 0
-70 -18 -30 0
-70 -18 -32 0
-70 -18 -34 0
-70 -18 -38 0
-70 -18 -40 0
-70 -18 -42 0
-70 -18 -46 0
-70 -18 -48 0
-70 -18 -52 0
-70 -20 -22 0
-70 -20 -24 0
-70 -20 -28 0
-70 -20 -30 0
-70 -20 -32 0
-70 -20 -34 0
-70 -20 -38 0
-70 -20 -40 0
-70 -20 -42 0
-70 -20 -46 0
-70 -20 -48 0
-70 -20 -52 0
-70 -22 -24 0
-70 -22 -28 0
-70 -22 -30 0
-70 -22 -32 0
-70 -22 -34 0
-70 -22 -38 0
-70 -22 -40 0
-70 -22 -42 0
-70 -22 -46 0
-70 -22 -48 0
-70 -22 -52 0
-70 -24 -28 0
-70 -24 -30 0
-70 -24 -32 0
-70 -24 -34 0
-70 -24 -38 0
-70 -24 -40 0
-70 -24 -42 0
-70 -24 -46 0
-70 -24 -48 0
-70 -24 -52 0
-70 -28 -30 0
-70 -28 -32 0
-70 -28 -34 0
-70 -28 -38 0
-70 -28 -40 0
-70 -28 -42 0
-70 -28 -46 0
-70 -28 -48 0
-70 -28 -52 0
-70 -30 -32 0
-70 -30 -34 0
-70 -30 -38 0
-70 -30 -40 0
-70 -30 -42 0
-70 -30 -46 0
-70 -30 -48 0
-70 -30 -52 0
-70 -32 -34 0
-70 -32 -38 0
-70 -32 -40 0
-70 -32 -42 0
-70 -32 -46 0
-70 -32 -48 0
-70 -32 -52 0
-70 -34 -38 0
-70 -34 -40 0
-70 -34 -42 0
-70 -34 -46 0
-70 -34 -48 0
-70 -34 -52 0
-70 -38 -40 0
-70 -38 -42 0
-70 -38 -46 0
-70 -38 -48 0
-70 -38 -52 0
-70 -40 -42 0
-70 -40 -46 0
-70 -40 -48 0
-70 -40 -52 0
-70 -42 -46 0
-70 -42 -48 0
-70 -42 -52 0
-70 -46 -48 0
-70 -46 -52 0
-70 -48 -52 0
-15 -16 0
71 72 0
-71 5 7 9 11 13 37 39 41 43 45 47 49 51 53 55 0
-71 -5 -7 0
-71 -5 -9 0
-71 -5 -11 0
-71 -5 -13 0
-71 -5 -37 0
-71 -5 -39 0
-71 -5 -41 0
-71 -5 -43 0
-71 -5 -45 0
-71 -5 -47 0
-71 -5 -49 0
-71 -5 -51 0
-71 -5 -53 0
-71 -5 -55 0
-71 -7 -9 0
-71 -7 -11 0
-71 -7 -13 0
-71 -7 -37 0
-71 -7 -39 0
-71 -7 -41 0
-71 -7 -43 0
-71 -7 -45 0
-71 -7 -47 0
-71 -7 -49 0
-71 -7 -51 0
-71 -7 -53 0
-71 -7 -55 0
-71 -9 -11 0
-71 -9 -13 0
-71 -9 -37 0
-71 -9 -39 0
-71 -9 -41 0
-71 -9 -43 0
-71 -9 -45 0
-71 -9 -47 0
-71 -9 -49 0
-71 -9 -51 0
-71 -9 -53 0
-71 -9 -55 0
-71 -11 -13 0
-71 -11 -37 0
-71 -11 -39 0
-71 -11 -41 0
-71 -11 -43 0
-71 -11 -45 0
-71 -11 -47 0
-71 -11 -49 0
-71 -11 -51 0
-71 -11 -53 0
-71 -11 -55 0
-71 -13 -37 0
-71 -13 -39 0
-71 -13 -41 0
-71 -13 -43 0
-71 -13 -45 0
-71 -13 -47 0
-71 -13 -49 0
-71 -13 -51 0
-71 -13 -53 0
-71 -13 -55 0
-71 -37 -39 0
-71 -37 -41 0
-71 -37 -43 0
-71 -37 -45 0
-71 -37 -47 0
-71 -37 -49 0
-71 -37 -51 0
-71 -37 -53 0
-71 -37 -55 0
-71 -39 -41 0
-71 -39 -43 0
-71 -39 -45 0
-71 -39 -47 0
-71 -39 -49 0
-71 -39 -51 0
-71 -39 -53 0
-71 -39 -55 0
-71 -41 -43 0
-71 -41 -45 0
-71 -41 -47 0
-71 -41 -49 0
-71 -41 -51 0
-71 -41 -53 0
-71 -41 -55 0
-71 -43 -45 0
-71 -43 -47 0
-71 -43 -49 0
-71 -43 -51 0
-71 -43 -53 0
-71 -43 -55 0
-71 -45 -47 0
-71 -45 -49 0
-71 -45 -51 0
-71 -45 -53 0
-71 -45 -55 0
-71 -47 -49 0
-71 -47 -51 0
-71 -47 -53 0
-71 -47 -55 0
-71 -49 -51 0
-71 -49 -53 0
-71 -49 -55 0
-71 -51 -53 0
-71 -51 -55 0
-71 -53 -55 0
-72 6 8 10 12 14 38 40 42 44 46 48 50 52 54 56 0
-72 -6 -8 0
-72 -6 -10 0
-72 -6 -12 0
-72 -6 -14 0
-72 -6 -38 0
-72 -6 -40 0
-72 -6 -42 0
-72 -6 -44 0
-72 -6 -46 0
-72 -6 -48 0
-72 -6 -50 0
-72 -6 -52 0
-72 -6 -54 0
-72 -6 -56 0
-72 -8 -10 0
-72 -8 -12 0
-72 -8 -14 0
-72 -8 -38 0
-72 -8 -40 0
-72 -8 -42 0
-72 -8 -44 0
-72 -8 -46 0
-72 -8 -48 0
-72 -8 -50 0
-72 -8 -52 0
-72 -8 -54 0
-72 -8 -56 0
-72 -10 -12 0
-72 -10 -14 0
-72 -10 -38 0
-72 -10 -40 0
-72 -10 -42 0
-72 -10 -44 0
-72 -10 -46 0
-72 -10 -48 0
-72 -10 -50 0
-72 -10 -52 0
-72 -10 -54 0
-72 -10 -56 0
-72 -12 -14 0
-72 -12 -38 0
-72 -12 -40 0
-72 -12 -42 0
-72 -12 -44 0
-72 -12 -46 0
-72 -12 -48 0
-72 -12 -50 0
-72 -12 -52 0
-72 -12 -54 0
-72 -12 -56 0
-72 -14 -38 0
-72 -14 -40 0
-72 -14 -42 0
-72 -14 -44 0
-72 -14 -46 0
-72 -14 -48 0
-72 -14 -50 0
-72 -14 -52 0
-72 -14 -54 0
-72 -14 -56 0
-72 -38 -40 0
-72 -38 -42 0
-72 -38 -44 0
-72 -38 -46 0
-72 -38 -48 0
-72 -38 -50 0
-72 -38 -52 0
-72 -38 -54 0
-72 -38 -56 0
-72 -40 -42 0
-72 -40 -44 0
-72 -40 -46 0
-72 -40 -48 0
-72 -40 -50 0
-72 -40 -52 0
-72 -40 -54 0
-72 -40 -56 0
-72 -42 -44 0
-72 -42 -46 0
-72 -42 -48 0
-72 -42 -50 0
-72 -42 -52 0
-72 -42 -54 0
-72 -42 -56 0
-72 -44 -46 0
-72 -44 -48 0
-72 -44 -50 0
-72 -44 -52 0
-72 -44 -54 0
-72 -44 -56 0
-72 -46 -48 0
-72 -46 -50 0
-72 -46 -52 0
-72 -46 -54 0
-72 -46 -56 0
-72 -48 -50 0
-72 -48 -52 0
-72 -48 -54 0
-72 -48 -56 0
-72 -50 -52 0
-72 -50 -54 0
-72 -50 -56 0
-72 -52 -54 0
-72 -52 -56 0
-72 -54 -56 0
-17 -18 0
73 74 0
-73 3 7 9 11 13 29 31 33 35 45 47 49 51 53 55 0
-73 -3 -7 0
-73 -3 -9 0
-73 -3 -11 0
-73 -3 -13 0
-73 -3 -29 0
-73 -3 -31 0
-73 -3 -33 0
-73 -3 -35 0
-73 -3 -45 0
-73 -3 -47 0
-73 -3 -49 0
-73 -3 -51 0
-73 -3 -53 0
-73 -3 -55 0
-73 -7 -9 0
-73 -7 -11 0
-73 -7 -13 0
-73 -7 -29 0
-73 -7 -31 0
-73 -7 -33 0
-73 -7 -35 0
-73 -7 -45 0
-73 -7 -47 0
-73 -7 -49 0
-73 -7 -51 0
-73 -7 -53 0
-73 -7 -55 0
-73 -9 -11 0
-73 -9 -13 0
-73 -9 -29 0
-73 -9 -31 0
-73 -9 -33 0
-73 -9 -35 0
-73 -9 -45 0
-73 -9 -47 0
-73 -9 -49 0
-73 -9 -51 0
-73 -9 -53 0
-73 -9 -55 0
-73 -11 -13 0
-73 -11 -29 0
-73 -11 -31 0
-73 -11 -33 0
-73 -11 -35 0
-73 -11 -45 0
-73 -11 -47 0
-73 -11 -49 0
-73 -11 -51 0
-73 -11 -53 0
-73 -11 -55 0
-73 -13 -29 0
-73 -13 -31 0
-73 -13 -33 0
-73 -13 -35 0
-73 -13 -45 0
-73 -13 -47 0
-73 -13 -49 0
-73 -13 -51 0
-73 -13 -53 0
-73 -13 -55 0
-73 -29 -31 0
-73 -29 -33 0
-73 -29 -35 0
-73 -29 -45 0
-73 -29 -47 0
-73 -29 -49 0
-73 -29 -51 0
-73 -29 -53 0
-73 -29 -55 0
-73 -31 -33 0
-73 -31 -35 0
-73 -31 -45 0
-73 -31 -47 0
-73 -31 -49 0
-73 -31 -51 0
-73 -31 -53 0
-73 -31 -55 0
-73 -33 -35 0
-73 -33 -45 0
-73 -33 -47 0
-73 -33 -49 0
-73 -33 -51 0
-73 -33 -53 0
-73 -33 -55 0
-73 -35 -45 0
-73 -35 -47 0
-73 -35 -49 0
-73 -35 -51 0
-73 -35 -53 0
-73 -35 -55 0
-73 -45 -47 0
-73 -45 -49 0
-73 -45 -51 0
-73 -45 -53 0
-73 -45 -55 0
-73 -47 -49 0
-73 -47 -51 0
-73 -47 -53 0
-73 -47 -55 0
-73 -49 -51 0
-73 -49 -53 0
-73 -49 -55 0
-73 -51 -53 0
-73 -51 -55 0
-73 -53 -55 0
-74 4 8 10 12 14 30 32 34 36 46 48 50 52 54 56 0
-74 -4 -8 0
-74 -4 -10 0
-74 -4 -12 0
-74 -4 -14 0
-74 -4 -30 0
-74 -4 -32 0
-74 -4 -34 0
-74 -4 -36 0
-74 -4 -46 0
-74 -4 -48 0
-74 -4 -50 0
-74 -4 -52 0
-74 -4 -54 0
-74 -4 -56 0
-74 -8 -10 0
-74 -8 -12 0
-74 -8 -14 0
-74 -8 -30 0
-74 -8 -32 0
-74 -8 -34 0
-74 -8 -36 0
-74 -8 -46 0
-74 -8 -48 0
-74 -8 -50 0
-74 -8 -52 0
-74 -8 -54 0
-74 -8 -56 0
-74 -10 -12 0
-74 -10 -14 0
-74 -10 -30 0
-74 -10 -32 0
-74 -10 -34 0
-74 -10 -36 0
-74 -10 -46 0
-74 -10 -48 0
-74 -10 -50 0
-74 -10 -52 0
-74 -10 -54 0
-74 -10 -56 0
-74 -12 -14 0
-74 -12 -30 0
-74 -12 -32 0
-74 -12 -34 0
-74 -12 -36 0
-74 -12 -46 0
-74 -12 -48 0
-74 -12 -50 0
-74 -12 -52 0
-74 -12 -54 0
-74 -12 -56 0
-74 -14 -30 0
-74 -14 -32 0
-74 -14 -34 0
-74 -14 -36 0
-74 -14 -46 0
-74 -14 -48 0
-74 -14 -50 0
-74 -14 -52 0
-74 -14 -54 0
-74 -14 -56 0
-74 -30 -32 0
-74 -30 -34 0
-74 -30 -36 0
-74 -30 -46 0
-74 -30 -48 0
-74 -30 -50 0
-74 -30 -52 0
-74 -30 -54 0
-74 -30 -56 0
-74 -32 -34 0
-74 -32 -36 0
-74 -32 -46 0
-74 -32 -48 0
-74 -32 -50 0
-74 -32 -52 0
-74 -32 -54 0
-74 -32 -56 0
-74 -34 -36 0
-74 -34 -46 0
-74 -34 -48 0
-74 -34 -50 0
-74 -34 -52 0
-74 -34 -54 0
-74 -34 -56 0
-74 -36 -46 0
-74 -36 -48 0
-74 -36 -50 0
-74 -36 -52 0
-74 -36 -54 0
-74 -36 -56 0
-74 -46 -48 0
-74 -46 -50 0
-74 -46 -52 0
-74 -46 -54 0
-74 -46 -56 0
-74 -48 -50 0
-74 -48 -52 0
-74 -48 -54 0
-74 -48 -56 0
-74 -50 -52 0
-74 -50 -54 0
-74 -50 -56 0
-74 -52 -54 0
-74 -52 -56 0
-74 -54 -56 0
-19 -20 0
75 76 0
-75 3 5 9 11 13 27 31 33 35 39 41 43 51 53 55 0
-75 -3 -5 0
-75 -3 -9 0
-75 -3 -11 0
-75 -3 -13 0
-75 -3 -27 0
-75 -3 -31 0
-75 -3 -33 0
-75 -3 -35 0
-75 -3 -39 0
-75 -3 -41 0
-75 -3 -43 0
-75 -3 -51 0
-75 -3 -53 0
-75 -3 -55 0
-75 -5 -9 0
-75 -5 -11 0
-75 -5 -13 0
-75 -5 -27 0
-75 -5 -31 0
-75 -5 -33 0
-75 -5 -35 0
-75 -5 -39 0
-75 -5 -41 0
-75 -5 -43 0
-75 -5 -51 0
-75 -5 -53 0
-75 -5 -55 0
-75 -9 -11 0
-75 -9 -13 0
-75 -9 -27 0
-75 -9 -31 0
-75 -9 -33 0
-75 -9 -35 0
-75 -9 -39 0
-75 -9 -41 0
-75 -9 -43 0
-75 -9 -51 0
-75 -9 -53 0
-75 -9 -55 0
-75 -11 -13 0
-75 -11 -27 0
-75 -11 -31 0
-75 -11 -33 0
-75 -11 -35 0
-75 -11 -39 0
-75 -11 -41 0
-75 -11 -43 0
-75 -11 -51 0
-75 -11 -53 0
-75 -11 -55 0
-75 -13 -27 0
-75 -13 -31 0
-75 -13 -33 0
-75 -13 -35 0
-75 -13 -39 0
-75 -13 -41 0
-75 -13 -43 0
-75 -13 -51 0
-75 -13 -53 0
-75 -13 -55 0
-75 -27 -31 0
-75 -27 -33 0
-75 -27 -35 0
-75 -27 -39 0
-75 -27 -41 0
-75 -27 -43 0
-75 -27 -51 0
-75 -27 -53 0
-75 -27 -55 0
-75 -31 -33 0
-75 -31 -35 0
-75 -31 -39 0
-75 -31 -41 0
-75 -31 -43 0
-75 -31 -51 0
-75 -31 -53 0
-75 -31 -55 0
-75 -33 -35 0
-75 -33 -39 0
-75 -33 -41 0
-75 -33 -43 0
-75 -33 -51 0
-75 -33 -53 0
-75 -33 -55 0
-75 -35 -39 0
-75 -35 -41 0
-75 -35 -43 0
-75 -35 -51 0
-75 -35 -53 0
-75 -35 -55 0
-75 -39 -41 0
-75 -39 -43 0
-75 -39 -51 0
-75 -39 -53 0
-75 -39 -55 0
-75 -41 -43 0
-75 -41 -51 0
-75 -41 -53 0
-75 -41 -55 0
-75 -43 -51 0
-75 -43 -53 0
-75 -43 -55 0
-75 -51 -53 0
-75 -51 -55 0
-75 -53 -55 0
-76 4 6 10 12 14 28 32 34 36 40 42 44 52 54 56 0
-76 -4 -6 0
-76 -4 -10 0
-76 -4 -12 0
-76 -4 -14 0
-76 -4 -28 0
-76 -4 -32 0
-76 -4 -34 0
-76 -4 -36 0
-76 -4 -40 0
-76 -4 -42 0
-76 -4 -44 0
-76 -4 -52 0
-76 -4 -54 0
-76 -4 -56 0
-76 -6 -10 0
-76 -6 -12 0
-76 -6 -14 0
-76 -6 -28 0
-76 -6 -32 0
-76 -6 -34 0
-76 -6 -36 0
-76 -6 -40 0
-76 -6 -42 0
-76 -6 -44 0
-76 -6 -52 0
-76 -6 -54 0
-76 -6 -56 0
-76 -10 -12 0
-76 -10 -14 0
-76 -10 -28 0
-76 -10 -32 0
-76 -10 -34 0
-76 -10 -36 0
-76 -10 -40 0
-76 -10 -42 0
-76 -10 -44 0
-76 -10 -52 0
-76 -10 -54 0
-76 -10 -56 0
-76 -12 -14 0
-76 -12 -28 0
-76 -12 -32 0
-76 -12 -34 0
-76 -12 -36 0
-76 -12 -40 0
-76 -12 -42 0
-76 -12 -44 0
-76 -12 -52 0
-76 -12 -54 0
-76 -12 -56 0
-76 -14 -28 0
-76 -14 -32 0
-76 -14 -34 0
-76 -14 -36 0
-76 -14 -40 0
-76 -14 -42 0
-76 -14 -44 0
-76 -14 -52 0
-76 -14 -54 0
-76 -14 -56 0
-76 -28 -32 0
-76 -28 -34 0
-76 -28 -36 0
-76 -28 -40 0
-76 -28 -42 0
-76 -28 -44 0
-76 -28 -52 0
-76 -28 -54 0
-76 -28 -56 0
-76 -32 -34 0
-76 -32 -36 0
-76 -32 -40 0
-76 -32 -42 0
-76 -32 -44 0
-76 -32 -52 0
-76 -32 -54 0
-76 -32 -56 0
-76 -34 -36 0
-76 -34 -40 0
-76 -34 -42 0
-76 -34 -44 0
-76 -34 -52 0
-76 -34 -54 0
-76 -34 -56 0
-76 -36 -40 0
-76 -36 -42 0
-76 -36 -44 0
-76 -36 -52 0
-76 -36 -54 0
-76 -36 -56 0
-76 -40 -42 0
-76 -40 -44 0
-76 -40 -52 0
-76 -40 -54 0
-76 -40 -56 0
-76 -42 -44 0
-76 -42 -52 0
-76 -42 -54 0
-76 -42 -56 0
-76 -44 -52 0
-76 -44 -54 0
-76 -44 -56 0
-76 -52 -54 0
-76 -52 -56 0
-76 -54 -56 0
-21 -22 0
77 78 0
-77 3 5 7 11 13 27 29 33 35 37 41 43 47 49 55 0
-77 -3 -5 0
-77 -3 -7 0
-77 -3 -11 0
-77 -3 -13 0
-77 -3 -27 0
-77 -3 -29 0
-77 -3 -33 0
-77 -3 -35 0
-77 -3 -37 0
-77 -3 -41 0
-77 -3 -43 0
-77 -3 -47 0
-77 -3 -49 0
-77 -3 -55 0
-77 -5 -7 0
-77 -5 -11 0
-77 -5 -13 0
-77 -5 -27 0
-77 -5 -29 0
-77 -5 -33 0
-77 -5 -35 0
-77 -5 -37 0
-77 -5 -41 0
-77 -5 -43 0
-77 -5 -47 0
-77 -5 -49 0
-77 -5 -55 0
-77 -7 -11 0
-77 -7 -13 0
-77 -7 -27 0
-77 -7 -29 0
-77 -7 -33 0
-77 -7 -35 0
-77 -7 -37 0
-77 -7 -41 0
-77 -7 -43 0
-77 -7 -47 0
-77 -7 -49 0
-77 -7 -55 0
-77 -11 -13 0
-77 -11 -27 0
-77 -11 -29 0
-77 -11 -33 0
-77 -11 -35 0
-77 -11 -37 0
-77 -11 -41 0
-77 -11 -43 0
-77 -11 -47 0
-77 -11 -49 0
-77 -11 -55 0
-77 -13 -27 0
-77 -13 -29 0
-77 -13 -33 0
-77 -13 -35 0
-77 -13 -37 0
-77 -13 -41 0
-77 -13 -43 0
-77 -13 -47 0
-77 -13 -49 0
-77 -13 -55 0
-77 -27 -29 0
-77 -27 -33 0
-77 -27 -35 0
-77 -27 -37 0
-77 -27 -41 0
-77 -27 -43 0
-77 -27 -47 0
-77 -27 -49 0
-77 -27 -55 0
-77 -29 -33 0
-77 -29 -35 0
-77 -29 -37 0
-77 -29 -41 0
-77 -29 -43 0
-77 -29 -47 0
-77 -29 -49 0
-77 -29 -55 0
-77 -33 -35 0
-77 -33 -37 0
-77 -33 -41 0
-77 -33 -43 0
-77 -33 -47 0
-77 -33 -49 0
-77 -33 -55 0
-77 -35 -37 0
-77 -35 -41 0
-77 -35 -43 0
-77 -35 -47 0
-77 -35 -49 0
-77 -35 -55 0
-77 -37 -41 0
-77 -37 -43 0
-77 -37 -47 0
-77 -37 -49 0
-77 -37 -55 0
-77 -41 -43 0
-77 -41 -47 0
-77 -41 -49 0
-77 -41 -55 0
-77 -43 -47 0
-77 -43 -49 0
-77 -43 -55 0
-77 -47 -49 0
-77 -47 -55 0
-77 -49 -55 0
-78 4 6 8 12 14 28 30 34 36 38 42 44 48 50 56 0
-78 -4 -6 0
-78 -4 -8 0
-78 -4 -12 0
-78 -4 -14 0
-78 -4 -28 0
-78 -4 -30 0
-78 -4 -34 0
-78 -4 -36 0
-78 -4 -38 0
-78 -4 -42 0
-78 -4 -44 0
-78 -4 -48 0
-78 -4 -50 0
-78 -4 -56 0
-78 -6 -8 0
-78 -6 -12 0
-78 -6 -14 0
-78 -6 -28 0
-78 -6 -30 0
-78 -6 -34 0
-78 -6 -36 0
-78 -6 -38 0
-78 -6 -42 0
-78 -6 -44 0
-78 -6 -48 0
-78 -6 -50 0
-78 -6 -56 0
-78 -8 -12 0
-78 -8 -14 0
-78 -8 -28 0
-78 -8 -30 0
-78 -8 -34 0
-78 -8 -36 0
-78 -8 -38 0
-78 -8 -42 0
-78 -8 -44 0
-78 -8 -48 0
-78 -8 -50 0
-78 -8 -56 0
-78 -12 -14 0
-78 -12 -28 0
-78 -12 -30 0
-78 -12 -34 0
-78 -12 -36 0
-78 -12 -38 0
-78 -12 -42 0
-78 -12 -44 0
-78 -12 -48 0
-78 -12 -50 0
-78 -12 -56 0
-78 -14 -28 0
-78 -14 -30 0
-78 -14 -34 0
-78 -14 -36 0
-78 -14 -38 0
-78 -14 -42 0
-78 -14 -44 0
-78 -14 -48 0
-78 -14 -50 0
-78 -14 -56 0
-78 -28 -30 0
-78 -28 -34 0
-78 -28 -36 0
-78 -28 -38 0
-78 -28 -42 0
-78 -28 -44 0
-78 -28 -48 0
-78 -28 -50 0
-78 -28 -56 0
-78 -30 -34 0
-78 -30 -36 0
-78 -30 -38 0
-78 -30 -42 0
-78 -30 -44 0
-78 -30 -48 0
-78 -30 -50 0
-78 -30 -56 0
-78 -34 -36 0
-78 -34 -38 0
-78 -34 -42 0
-78 -34 -44 0
-78 -34 -48 0
-78 -34 -50 0
-78 -34 -56 0
-78 -36 -38 0
-78 -36 -42 0
-78 -36 -44 0
-78 -36 -48 0
-78 -36 -50 0
-78 -36 -56 0
-78 -38 -42 0
-78 -38 -44 0
-78 -38 -48 0
-78 -38 -50 0
-78 -38 -56 0
-78 -42 -44 0
-78 -42 -48 0
-78 -42 -50 0
-78 -42 -56 0
-78 -44 -48 0
-78 -44 -50 0
-78 -44 -56 0
-78 -48 -50 0
-78 -48 -56 0
-78 -50 -56 0
-23 -24 0
79 80 0
-79 3 5 7 9 13 27 29 31 35 37 39 43 45 49 53 0
-79 -3 -5 0
-79 -3 -7 0
-79 -3 -9 0
-79 -3 -13 0
-79 -3 -27 0
-79 -3 -29 0
-79 -3 -31 0
-79 -3 -35 0
-79 -3 -37 0
-79 -3 -39 0
-79 -3 -43 0
-79 -3 -45 0
-79 -3 -49 0
-79 -3 -53 0
-79 -5 -7 0
-79 -5 -9 0
-79 -5 -13 0
-79 -5 -27 0
-79 -5 -29 0
-79 -5 -31 0
-79 -5 -35 0
-79 -5 -37 0
-79 -5 -39 0
-79 -5 -43 0
-79 -5 -45 0
-79 -5 -49 0
-79 -5 -53 0
-79 -7 -9 0
-79 -7 -13 0
-79 -7 -27 0
-79 -7 -29 0
-79 -7 -31 0
-79 -7 -35 0
-79 -7 -37 0
-79 -7 -39 0
-79 -7 -43 0
-79 -7 -45 0
-79 -7 -49 0
-79 -7 -53 0
-79 -9 -13 0
-79 -9 -27 0
-79 -9 -29 0
-79 -9 -31 0
-79 -9 -35 0
-79 -9 -37 0
-79 -9 -39 0
-79 -9 -43 0
-79 -9 -45 0
-79 -9 -49 0
-79 -9 -53 0
-79 -13 -27 0
-79 -13 -29 0
-79 -13 -31 0
-79 -13 -35 0
-79 -13 -37 0
-79 -13 -39 0
-79 -13 -43 0
-79 -13 -45 0
-79 -13 -49 0
-79 -13 -53 0
-79 -27 -29 0
-79 -27 -31 0
-79 -27 -35 0
-79 -27 -37 0
-79 -27 -39 0
-79 -27 -43 0
-79 -27 -45 0
-79 -27 -49 0
-79 -27 -53 0
-79 -29 -31 0
-79 -29 -35 0
-79 -29 -37 0
-79 -29 -39 0
-79 -29 -43 0
-79 -29 -45 0
-79 -29 -49 0
-79 -29 -53 0
-79 -31 -35 0
-79 -31 -37 0
-79 -31 -39 0
-79 -31 -43 0
-79 -31 -45 0
-79 -31 -49 0
-79 -31 -53 0
-79 -35 -37 0
-79 -35 -39 0
-79 -35 -43 0
-79 -35 -45 0
-79 -35 -49 0
-79 -35 -53 0
-79 -37 -39 0
-79 -37 -43 0
-79 -37 -45 0
-79 -37 -49 0
-79 -37 -53 0
-79 -39 -43 0
-79 -39 -45 0
-79 -39 -49 0
-79 -39 -53 0
-79 -43 -45 0
-79 -43 -49 0
-79 -43 -53 0
-79 -45 -49 0
-79 -45 -53 0
-79 -49 -53 0
-80 4 6 8 10 14 28 30 32 36 38 40 44 46 50 54 0
-80 -4 -6 0
-80 -4 -8 0
-80 -4 -10 0
-80 -4 -14 0
-80 -4 -28 0
-80 -4 -30 0
-80 -4 -32 0
-80 -4 -36 0
-80 -4 -38 0
-80 -4 -40 0
-80 -4 -44 0
-80 -4 -46 0
-80 -4 -50 0
-80 -4 -54 0
-80 -6 -8 0
-80 -6 -10 0
-80 -6 -14 0
-80 -6 -28 0
-80 -6 -30 0
-80 -6 -32 0
-80 -6 -36 0
-80 -6 -38 0
-80 -6 -40 0
-80 -6 -44 0
-80 -6 -46 0
-80 -6 -50 0
-80 -6 -54 0
-80 -8 -10 0
-80 -8 -14 0
-80 -8 -28 0
-80 -8 -30 0
-80 -8 -32 0
-80 -8 -36 0
-80 -8 -38 0
-80 -8 -40 0
-80 -8 -44 0
-80 -8 -46 0
-80 -8 -50 0
-80 -8 -54 0
-80 -10 -14 0
-80 -10 -28 0
-80 -10 -30 0
-80 -10 -32 0
-80 -10 -36 0
-80 -10 -38 0
-80 -10 -40 0
-80 -10 -44 0
-80 -10 -46 0
-80 -10 -50 0
-80 -10 -54 0
-80 -14 -28 0
-80 -14 -30 0
-80 -14 -32 0
-80 -14 -36 0
-80 -14 -38 0
-80 -14 -40 0
-80 -14 -44 0
-80 -14 -46 0
-80 -14 -50 0
-80 -14 -54 0
-80 -28 -30 0
-80 -28 -32 0
-80 -28 -36 0
-80 -28 -38 0
-80 -28 -40 0
-80 -28 -44 0
-80 -28 -46 0
-80 -28 -50 0
-80 -28 -54 0
-80 -30 -32 0
-80 -30 -36 0
-80 -30 -38 0
-80 -30 -40 0
-80 -30 -44 0
-80 -30 -46 0
-80 -30 -50 0
-80 -30 -54 0
-80 -32 -36 0
-80 -32 -38 0
-80 -32 -40 0
-80 -32 -44 0
-80 -32 -46 0
-80 -32 -50 0
-80 -32 -54 0
-80 -36 -38 0
-80 -36 -40 0
-80 -36 -44 0
-80 -36 -46 0
-80 -36 -50 0
-80 -36 -54 0
-80 -38 -40 0
-80 -38 -44 0
-80 -38 -46 0
-80 -38 -50 0
-80 -38 -54 0
-80 -40 -44 0
-80 -40 -46 0
-80 -40 -50 0
-80 -40 -54 0
-80 -44 -46 0
-80 -44 -50 0
-80 -44 -54 0
-80 -46 -50 0
-80 -46 -54 0
-80 -50 -54 0
-25 -26 0
81 82 0
-81 3 5 7 9 11 27 29 31 33 37 39 41 45 47 51 0
-81 -3 -5 0
-81 -3 -7 0
-81 -3 -9 0
-81 -3 -11 0
-81 -3 -27 0
-81 -3 -29 0
-81 -3 -31 0
-81 -3 -33 0
-81 -3 -37 0
-81 -3 -39 0
-81 -3 -41 0
-81 -3 -45 0
-81 -3 -47 0
-81 -3 -51 0
-81 -5 -7 0
-81 -5 -9 0
-81 -5 -11 0
-81 -5 -27 0
-81 -5 -29 0
-81 -5 -31 0
-81 -5 -33 0
-81 -5 -37 0
-81 -5 -39 0
-81 -5 -41 0
-81 -5 -45 0
-81 -5 -47 0
-81 -5 -51 0
-81 -7 -9 0
-81 -7 -11 0
-81 -7 -27 0
-81 -7 -29 0
-81 -7 -31 0
-81 -7 -33 0
-81 -7 -37 0
-81 -7 -39 0
-81 -7 -41 0
-81 -7 -45 0
-81 -7 -47 0
-81 -7 -51 0
-81 -9 -11 0
-81 -9 -27 0
-81 -9 -29 0
-81 -9 -31 0
-81 -9 -33 0
-81 -9 -37 0
-81 -9 -39 0
-81 -9 -41 0
-81 -9 -45 0
-81 -9 -47 0
-81 -9 -51 0
-81 -11 -27 0
-81 -11 -29 0
-81 -11 -31 0
-81 -11 -33 0
-81 -11 -37 0
-81 -11 -39 0
-81 -11 -41 0
-81 -11 -45 0
-81 -11 -47 0
-81 -11 -51 0
-81 -27 -29 0
-81 -27 -31 0
-81 -27 -33 0
-81 -27 -37 0
-81 -27 -39 0
-81 -27 -41 0
-81 -27 -45 0
-81 -27 -47 0
-81 -27 -51 0
-81 -29 -31 0
-81 -29 -33 0
-81 -29 -37 0
-81 -29 -39 0
-81 -29 -41 0
-81 -29 -45 0
-81 -29 -47 0
-81 -29 -51 0
-81 -31 -33 0
-81 -31 -37 0
-81 -31 -39 0
-81 -31 -41 0
-81 -31 -45 0
-81 -31 -47 0
-81 -31 -51 0
-81 -33 -37 0
-81 -33 -39 0
-81 -33 -41 0
-81 -33 -45 0
-81 -33 -47 0
-81 -33 -51 0
-81 -37 -39 0
-81 -37 -41 0
-81 -37 -45 0
-81 -37 -47 0
-81 -37 -51 0
-81 -39 -41 0
-81 -39 -45 0
-81 -39 -47 0
-81 -39 -51 0
-81 -41 -45 0
-81 -41 -47 0
-81 -41 -51 0
-81 -45 -47 0
-81 -45 -51 0
-81 -47 -51 0
-82 4 6 8 10 12 28 30 32 34 38 40 42 46 48 52 0
-82 -4 -6 0
-82 -4 -8 0
-82 -4 -10 0
-82 -4 -12 0
-82 -4 -28 0
-82 -4 -30 0
-82 -4 -32 0
-82 -4 -34 0
-82 -4 -38 0
-82 -4 -40 0
-82 -4 -42 0
-82 -4 -46 0
-82 -4 -48 0
-82 -4 -52 0
-82 -6 -8 0
-82 -6 -10 0
-82 -6 -12 0
-82 -6 -28 0
-82 -6 -30 0
-82 -6 -32 0
-82 -6 -34 0
-82 -6 -38 0
-82 -6 -40 0
-82 -6 -42 0
-82 -6 -46 0
-82 -6 -48 0
-82 -6 -52 0
-82 -8 -10 0
-82 -8 -12 0
-82 -8 -28 0
-82 -8 -30 0
-82 -8 -32 0
-82 -8 -34 0
-82 -8 -38 0
-82 -8 -40 0
-82 -8 -42 0
-82 -8 -46 0
-82 -8 -48 0
-82 -8 -52 0
-82 -10 -12 0
-82 -10 -28 0
-82 -10 -30 0
-82 -10 -32 0
-82 -10 -34 0
-82 -10 -38 0
-82 -10 -40 0
-82 -10 -42 0
-82 -10 -46 0
-82 -10 -48 0
-82 -10 -52 0
-82 -12 -28 0
-82 -12 -30 0
-82 -12 -32 0
-82 -12 -34 0
-82 -12 -38 0
-82 -12 -40 0
-82 -12 -42 0
-82 -12 -46 0
-82 -12 -48 0
-82 -12 -52 0
-82 -28 -30 0
-82 -28 -32 0
-82 -28 -34 0
-82 -28 -38 0
-82 -28 -40 0
-82 -28 -42 0
-82 -28 -46 0
-82 -28 -48 0
-82 -28 -52 0
-82 -30 -32 0
-82 -30 -34 0
-82 -30 -38 0
-82 -30 -40 0
-82 -30 -42 0
-82 -30 -46 0
-82 -30 -48 0
-82 -30 -52 0
-82 -32 -34 0
-82 -32 -38 0
-82 -32 -40 0
-82 -32 -42 0
-82 -32 -46 0
-82 -32 -48 0
-82 -32 -52 0
-82 -34 -38 0
-82 -34 -40 0
-82 -34 -42 0
-82 -34 -46 0
-82 -34 -48 0
-82 -34 -52 0
-82 -38 -40 0
-82 -38 -42 0
-82 -38 -46 0
-82 -38 -48 0
-82 -38 -52 0
-82 -40 -42 0
-82 -40 -46 0
-82 -40 -48 0
-82 -40 -52 0
-82 -42 -46 0
-82 -42 -48 0
-82 -42 -52 0
-82 -46 -48 0
-82 -46 -52 0
-82 -48 -52 0
-27 -28 0
83 84 0
-83 1 7 9 11 13 19 21 23 25 45 47 49 51 53 55 0
-83 -1 -7 0
-83 -1 -9 0
-83 -1 -11 0
-83 -1 -13 0
-83 -1 -19 0
-83 -1 -21 0
-83 -1 -23 0
-83 -1 -25 0
-83 -1 -45 0
-83 -1 -47 0
-83 -1 -49 0
-83 -1 -51 0
-83 -1 -53 0
-83 -1 -55 0
-83 -7 -9 0
-83 -7 -11 0
-83 -7 -13 0
-83 -7 -19 0
-83 -7 -21 0
-83 -7 -23 0
-83 -7 -25 0
-83 -7 -45 0
-83 -7 -47 0
-83 -7 -49 0
-83 -7 -51 0
-83 -7 -53 0
-83 -7 -55 0
-83 -9 -11 0
-83 -9 -13 0
-83 -9 -19 0
-83 -9 -21 0
-83 -9 -23 0
-83 -9 -25 0
-83 -9 -45 0
-83 -9 -47 0
-83 -9 -49 0
-83 -9 -51 0
-83 -9 -53 0
-83 -9 -55 0
-83 -11 -13 0
-83 -11 -19 0
-83 -11 -21 0
-83 -11 -23 0
-83 -11 -25 0
-83 -11 -45 0
-83 -11 -47 0
-83 -11 -49 0
-83 -11 -51 0
-83 -11 -53 0
-83 -11 -55 0
-83 -13 -19 0
-83 -13 -21 0
-83 -13 -23 0
-83 -13 -25 0
-83 -13 -45 0
-83 -13 -47 0
-83 -13 -49 0
-83 -13 -51 0
-83 -13 -53 0
-83 -13 -55 0
-83 -19 -21 0
-83 -19 -23 0
-83 -19 -25 0
-83 -19 -45 0
-83 -19 -47 0
-83 -19 -49 0
-83 -19 -51 0
-83 -19 -53 0
-83 -19 -55 0
-83 -21 -23 0
-83 -21 -25 0
-83 -21 -45 0
-83 -21 -47 0
-83 -21 -49 0
-83 -21 -51 0
-83 -21 -53 0
-83 -21 -55 0
-83 -23 -25 0
-83 -23 -45 0
-83 -23 -47 0
-83 -23 -49 0
-83 -23 -51 0
-83 -23 -53 0
-83 -23 -55 0
-83 -25 -45 0
-83 -25 -47 0
-83 -25 -49 0
-83 -25 -51 0
-83 -25 -53 0
-83 -25 -55 0
-83 -45 -47 0
-83 -45 -49 0
-83 -45 -51 0
-83 -45 -53 0
-83 -45 -55 0
-83 -47 -49 0
-83 -47 -51 0
-83 -47 -53 0
-83 -47 -55 0
-83 -49 -51 0
-83 -49 -53 0
-83 -49 -55 0
-83 -51 -53 0
-83 -51 -55 0
-83 -53 -55 0
-84 2 8 10 12 14 20 22 24 26 46 48 50 52 54 56 0
-84 -2 -8 0
-84 -2 -10 0
-84 -2 -12 0
-84 -2 -14 0
-84 -2 -20 0
-84 -2 -22 0
-84 -2 -24 0
-84 -2 -26 0
-84 -2 -46 0
-84 -2 -48 0
-84 -2 -50 0
-84 -2 -52 0
-84 -2 -54 0
-84 -2 -56 0
-84 -8 -10 0
-84 -8 -12 0
-84 -8 -14 0
-84 -8 -20 0
-84 -8 -22 0
-84 -8 -24 0
-84 -8 -26 0
-84 -8 -46 0
-84 -8 -48 0
-84 -8 -50 0
-84 -8 -52 0
-84 -8 -54 0
-84 -8 -56 0
-84 -10 -12 0
-84 -10 -14 0
-84 -10 -20 0
-84 -10 -22 0
-84 -10 -24 0
-84 -10 -26 0
-84 -10 -46 0
-84 -10 -48 0
-84 -10 -50 0
-84 -10 -52 0
-84 -10 -54 0
-84 -10 -56 0
-84 -12 -14 0
-84 -12 -20 0
-84 -12 -22 0
-84 -12 -24 0
-84 -12 -26 0
-84 -12 -46 0
-84 -12 -48 0
-84 -12 -50 0
-84 -12 -52 0
-84 -12 -54 0
-84 -12 -56 0
-84 -14 -20 0
-84 -14 -22 0
-84 -14 -24 0
-84 -14 -26 0
-84 -14 -46 0
-84 -14 -48 0
-84 -14 -50 0
-84 -14 -52 0
-84 -14 -54 0
-84 -14 -56 0
-84 -20 -22 0
-84 -20 -24 0
-84 -20 -26 0
-84 -20 -46 0
-84 -20 -48 0
-84 -20 -50 0
-84 -20 -52 0
-84 -20 -54 0
-84 -20 -56 0
-84 -22 -24 0
-84 -22 -26 0
-84 -22 -46 0
-84 -22 -48 0
-84 -22 -50 0
-84 -22 -52 0
-84 -22 -54 0
-84 -22 -56 0
-84 -24 -26 0
-84 -24 -46 0
-84 -24 -48 0
-84 -24 -50 0
-84 -24 -52 0
-84 -24 -54 0
-84 -24 -56 0
-84 -26 -46 0
-84 -26 -48 0
-84 -26 -50 0
-84 -26 -52 0
-84 -26 -54 0
-84 -26 -56 0
-84 -46 -48 0
-84 -46 -50 0
-84 -46 -52 0
-84 -46 -54 0
-84 -46 -56 0
-84 -48 -50 0
-84 -48 -52 0
-84 -48 -54 0
-84 -48 -56 0
-84 -50 -52 0
-84 -50 -54 0
-84 -50 -56 0
-84 -52 -54 0
-84 -52 -56 0
-84 -54 -56 0
-29 -30 0
85 86 0
-85 1 5 9 11 13 17 21 23 25 39 41 43 51 53 55 0
-85 -1 -5 0
-85 -1 -9 0
-85 -1 -11 0
-85 -1 -13 0
-85 -1 -17 0
-85 -1 -21 0
-85 -1 -23 0
-85 -1 -25 0
-85 -1 -39 0
-85 -1 -41 0
-85 -1 -43 0
-85 -1 -51 0
-85 -1 -53 0
-85 -1 -55 0
-85 -5 -9 0
-85 -5 -11 0
-85 -5 -13 0
-85 -5 -17 0
-85 -5 -21 0
-85 -5 -23 0
-85 -5 -25 0
-85 -5 -39 0
-85 -5 -41 0
-85 -5 -43 0
-85 -5 -51 0
-85 -5 -53 0
-85 -5 -55 0
-85 -9 -11 0
-85 -9 -13 0
-85 -9 -17 0
-85 -9 -21 0
-85 -9 -23 0
-85 -9 -25 0
-85 -9 -39 0
-85 -9 -41 0
-85 -9 -43 0
-85 -9 -51 0
-85 -9 -53 0
-85 -9 -55 0
-85 -11 -13 0
-85 -11 -17 0
-85 -11 -21 0
-85 -11 -23 0
-85 -11 -25 0
-85 -11 -39 0
-85 -11 -41 0
-85 -11 -43 0
-85 -11 -51 0
-85 -11 -53 0
-85 -11 -55 0
-85 -13 -17 0
-85 -13 -21 0
-85 -13 -23 0
-85 -13 -25 0
-85 -13 -39 0
-85 -13 -41 0
-85 -13 -43 0
-85 -13 -51 0
-85 -13 -53 0
-85 -13 -55 0
-85 -17 -21 0
-85 -17 -23 0
-85 -17 -25 0
-85 -17 -39 0
-85 -17 -41 0
-85 -17 -43 0
-85 -17 -51 0
-85 -17 -53 0
-85 -17 -55 0
-85 -21 -23 0
-85 -21 -25 0
-85 -21 -39 0
-85 -21 -41 0
-85 -21 -43 0
-85 -21 -51 0
-85 -21 -53 0
-85 -21 -55 0
-85 -23 -25 0
-85 -23 -39 0
-85 -23 -41 0
-85 -23 -43 0
-85 -23 -51 0
-85 -23 -53 0
-85 -23 -55 0
-85 -25 -39 0
-85 -25 -41 0
-85 -25 -43 0
-85 -25 -51 0
-85 -25 -53 0
-85 -25 -55 0
-85 -39 -41 0
-85 -39 -43 0
-85 -39 -51 0
-85 -39 -53 0
-85 -39 -55 0
-85 -41 -43 0
-85 -41 -51 0
-85 -41 -53 0
-85 -41 -55 0
-85 -43 -51 0
-85 -43 -53 0
-85 -43 -55 0
-85 -51 -53 0
-85 -51 -55 0
-85 -53 -55 0
-86 2 6 10 12 14 18 22 24 26 40 42 44 52 54 56 0
-86 -2 -6 0
-86 -2 -10 0
-86 -2 -12 0
-86 -2 -14 0
-86 -2 -18 0
-86 -2 -22 0
-86 -2 -24 0
-86 -2 -26 0
-86 -2 -40 0
-86 -2 -42 0
-86 -2 -44 0
-86 -2 -52 0
-86 -2 -54 0
-86 -2 -56 0
-86 -6 -10 0
-86 -6 -12 0
-86 -6 -14 0
-86 -6 -18 0
-86 -6 -22 0
-86 -6 -24 0
-86 -6 -26 0
-86 -6 -40 0
-86 -6 -42 0
-86 -6 -44 0
-86 -6 -52 0
-86 -6 -54 0
-86 -6 -56 0
-86 -10 -12 0
-86 -10 -14 0
-86 -10 -18 0
-86 -10 -22 0
-86 -10 -24 0
-86 -10 -26 0
-86 -10 -40 0
-86 -10 -42 0
-86 -10 -44 0
-86 -10 -52 0
-86 -10 -54 0
-86 -10 -56 0
-86 -12 -14 0
-86 -12 -18 0
-86 -12 -22 0
-86 -12 -24 0
-86 -12 -26 0
-86 -12 -40 0
-86 -12 -42 0
-86 -12 -44 0
-86 -12 -52 0
-86 -12 -54 0
-86 -12 -56 0
-86 -14 -18 0
-86 -14 -22 0
-86 -14 -24 0
-86 -14 -26 0
-86 -14 -40 0
-86 -14 -42 0
-86 -14 -44 0
-86 -14 -52 0
-86 -14 -54 0
-86 -14 -56 0
-86 -18 -22 0
-86 -18 -24 0
-86 -18 -26 0
-86 -18 -40 0
-86 -18 -42 0
-86 -18 -44 0
-86 -18 -52 0
-86 -18 -54 0
-86 -18 -56 0
-86 -22 -24 0
-86 -22 -26 0
-86 -22 -40 0
-86 -22 -42 0
-86 -22 -44 0
-86 -22 -52 0
-86 -22 -54 0
-86 -22 -56 0
-86 -24 -26 0
-86 -24 -40 0
-86 -24 -42 0
-86 -24 -44 0
-86 -24 -52 0
-86 -24 -54 0
-86 -24 -56 0
-86 -26 -40 0
-86 -26 -42 0
-86 -26 -44 0
-86 -26 -52 0
-86 -26 -54 0
-86 -26 -56 0
-86 -40 -42 0
-86 -40 -44 0
-86 -40 -52 0
-86 -40 -54 0
-86 -40 -56 0
-86 -42 -44 0
-86 -42 -52 0
-86 -42 -54 0
-86 -42 -56 0
-86 -44 -52 0
-86 -44 -54 0
-86 -44 -56 0
-86 -52 -54 0
-86 -52 -56 0
-86 -54 -56 0
-31 -32 0
87 88 0
-87 1 5 7 11 13 17 19 23 25 37 41 43 47 49 55 0
-87 -1 -5 0
-87 -1 -7 0
-87 -1 -11 0
-87 -1 -13 0
-87 -1 -17 0
-87 -1 -19 0
-87 -1 -23 0
-87 -1 -25 0
-87 -1 -37 0
-87 -1 -41 0
-87 -1 -43 0
-87 -1 -47 0
-87 -1 -49 0
-87 -1 -55 0
-87 -5 -7 0
-87 -5 -11 0
-87 -5 -13 0
-87 -5 -17 0
-87 -5 -19 0
-87 -5 -23 0
-87 -5 -25 0
-87 -5 -37 0
-87 -5 -41 0
-87 -5 -43 0
-87 -5 -47 0
-87 -5 -49 0
-87 -5 -55 0
-87 -7 -11 0
-87 -7 -13 0
-87 -7 -17 0
-87 -7 -19 0
-87 -7 -23 0
-87 -7 -25 0
-87 -7 -37 0
-87 -7 -41 0
-87 -7 -43 0
-87 -7 -47 0
-87 -7 -49 0
-87 -7 -55 0
-87 -11 -13 0
-87 -11 -17 0
-87 -11 -19 0
-87 -11 -23 0
-87 -11 -25 0
-87 -11 -37 0
-87 -11 -41 0
-87 -11 -43 0
-87 -11 -47 0
-87 -11 -49 0
-87 -11 -55 0
-87 -13 -17 0
-87 -13 -19 0
-87 -13 -23 0
-87 -13 -25 0
-87 -13 -37 0
-87 -13 -41 0
-87 -13 -43 0
-87 -13 -47 0
-87 -13 -49 0
-87 -13 -55 0
-87 -17 -19 0
-87 -17 -23 0
-87 -17 -25 0
-87 -17 -37 0
-87 -17 -41 0
-87 -17 -43 0
-87 -17 -47 0
-87 -17 -49 0
-87 -17 -55 0
-87 -19 -23 0
-87 -19 -25 0
-87 -19 -37 0
-87 -19 -41 0
-87 -19 -43 0
-87 -19 -47 0
-87 -19 -49 0
-87 -19 -55 0
-87 -23 -25 0
-87 -23 -37 0
-87 -23 -41 0
-87 -23 -43 0
-87 -23 -47 0
-87 -23 -49 0
-87 -23 -55 0
-87 -25 -37 0
-87 -25 -41 0
-87 -25 -43 0
-87 -25 -47 0
-87 -25 -49 0
-87 -25 -55 0
-87 -37 -41 0
-87 -37 -43 0
-87 -37 -47 0
-87 -37 -49 0
-87 -37 -55 0
-87 -41 -43 0
-87 -41 -47 0
-87 -41 -49 0
-87 -41 -55 0
-87 -43 -47 0
-87 -43 -49 0
-87 -43 -55 0
-87 -47 -49 0
-87 -47 -55 0
-87 -49 -55 0
-88 2 6 8 12 14 18 20 24 26 38 42 44 48 50 56 0
-88 -2 -6 0
-88 -2 -8 0
-88 -2 -12 0
-88 -2 -14 0
-88 -2 -18 0
-88 -2 -20 0
-88 -2 -24 0
-88 -2 -26 0
-88 -2 -38 0
-88 -2 -42 0
-88 -2 -44 0
-88 -2 -48 0
-88 -2 -50 0
-88 -2 -56 0
-88 -6 -8 0
-88 -6 -12 0
-88 -6 -14 0
-88 -6 -18 0
-88 -6 -20 0
-88 -6 -24 0
-88 -6 -26 0
-88 -6 -38 0
-88 -6 -42 0
-88 -6 -44 0
-88 -6 -48 0
-88 -6 -50 0
-88 -6 -56 0
-88 -8 -12 0
-88 -8 -14 0
-88 -8 -18 0
-88 -8 -20 0
-88 -8 -24 0
-88 -8 -26 0
-88 -8 -38 0
-88 -8 -42 0
-88 -8 -44 0
-88 -8 -48 0
-88 -8 -50 0
-88 -8 -56 0
-88 -12 -14 0
-88 -12 -18 0
-88 -12 -20 0
-88 -12 -24 0
-88 -12 -26 0
-88 -12 -38 0
-88 -12 -42 0
-88 -12 -44 0
-88 -12 -48 0
-88 -12 -50 0
-88 -12 -56 0
-88 -14 -18 0
-88 -14 -20 0
-88 -14 -24 0
-88 -14 -26 0
-88 -14 -38 0
-88 -14 -42 0
-88 -14 -44 0
-88 -14 -48 0
-88 -14 -50 0
-88 -14 -56 0
-88 -18 -20 0
-88 -18 -24 0
-88 -18 -26 0
-88 -18 -38 0
-88 -18 -42 0
-88 -18 -44 0
-88 -18 -48 0
-88 -18 -50 0
-88 -18 -56 0
-88 -20 -24 0
-88 -20 -26 0
-88 -20 -38 0
-88 -20 -42 0
-88 -20 -44 0
-88 -20 -48 0
-88 -20 -50 0
-88 -20 -56 0
-88 -24 -26 0
-88 -24 -38 0
-88 -24 -42 0
-88 -24 -44 0
-88 -24 -48 0
-88 -24 -50 0
-88 -24 -56 0
-88 -26 -38 0
-88 -26 -42 0
-88 -26 -44 0
-88 -26 -48 0
-88 -26 -50 0
-88 -26 -56 0
-88 -38 -42 0
-88 -38 -44 0
-88 -38 -48 0
-88 -38 -50 0
-88 -38 -56 0
-88 -42 -44 0
-88 -42 -48 0
-88 -42 -50 0
-88 -42 -56 0
-88 -44 -48 0
-88 -44 -50 0
-88 -44 -56 0
-88 -48 -50 0
-88 -48 -56 0
-88 -50 -56 0
-33 -34 0
89 90 0
-89 1 5 7 9 13 17 19 21 25 37 39 43 45 49 53 0
-89 -1 -5 0
-89 -1 -7 0
-89 -1 -9 0
-89 -1 -13 0
-89 -1 -17 0
-89 -1 -19 0
-89 -1 -21 0
-89 -1 -25 0
-89 -1 -37 0
-89 -1 -39 0
-89 -1 -43 0
-89 -1 -45 0
-89 -1 -49 0
-89 -1 -53 0
-89 -5 -7 0
-89 -5 -9 0
-89 -5 -13 0
-89 -5 -17 0
-89 -5 -19 0
-89 -5 -21 0
-89 -5 -25 0
-89 -5 -37 0
-89 -5 -39 0
-89 -5 -43 0
-89 -5 -45 0
-89 -5 -49 0
-89 -5 -53 0
-89 -7 -9 0
-89 -7 -13 0
-89 -7 -17 0
-89 -7 -19 0
-89 -7 -21 0
-89 -7 -25 0
-89 -7 -37 0
-89 -7 -39 0
-89 -7 -43 0
-89 -7 -45 0
-89 -7 -49 0
-89 -7 -53 0
-89 -9 -13 0
-89 -9 -17 0
-89 -9 -19 0
-89 -9 -21 0
-89 -9 -25 0
-89 -9 -37 0
-89 -9 -39 0
-89 -9 -43 0
-89 -9 -45 0
-89 -9 -49 0
-89 -9 -53 0
-89 -13 -17 0
-89 -13 -19 0
-89 -13 -21 0
-89 -13 -25 0
-89 -13 -37 0
-89 -13 -39 0
-89 -13 -43 0
-89 -13 -45 0
-89 -13 -49 0
-89 -13 -53 0
-89 -17 -19 0
-89 -17 -21 0
-89 -17 -25 0
-89 -17 -37 0
-89 -17 -39 0
-89 -17 -43 0
-89 -17 -45 0
-89 -17 -49 0
-89 -17 -53 0
-89 -19 -21 0
-89 -19 -25 0
-89 -19 -37 0
-89 -19 -39 0
-89 -19 -43 0
-89 -19 -45 0
-89 -19 -49 0
-89 -19 -53 0
-89 -21 -25 0
-89 -21 -37 0
-89 -21 -39 0
-89 -21 -43 0
-89 -21 -45 0
-89 -21 -49 0
-89 -21 -53 0
-89 -25 -37 0
-89 -25 -39 0
-89 -25 -43 0
-89 -25 -45 0
-89 -25 -49 0
-89 -25 -53 0
-89 -37 -39 0
-89 -37 -43 0
-89 -37 -45 0
-89 -37 -49 0
-89 -37 -53 0
-89 -39 -43 0
-89 -39 -45 0
-89 -39 -49 0
-89 -39 -53 0
-89 -43 -45 0
-89 -43 -49 0
-89 -43 -53 0
-89 -45 -49 0
-89 -45 -53 0
-89 -49 -53 0
-90 2 6 8 10 14 18 20 22 26 38 40 44 46 50 54 0
-90 -2 -6 0
-90 -2 -8 0
-90 -2 -10 0
-90 -2 -14 0
-90 -2 -18 0
-90 -2 -20 0
-90 -2 -22 0
-90 -2 -26 0
-90 -2 -38 0
-90 -2 -40 0
-90 -2 -44 0
-90 -2 -46 0
-90 -2 -50 0
-90 -2 -54 0
-90 -6 -8 0
-90 -6 -10 0
-90 -6 -14 0
-90 -6 -18 0
-90 -6 -20 0
-90 -6 -22 0
-90 -6 -26 0
-90 -6 -38 0
-90 -6 -40 0
-90 -6 -44 0
-90 -6 -46 0
-90 -6 -50 0
-90 -6 -54 0
-90 -8 -10 0
-90 -8 -14 0
-90 -8 -18 0
-90 -8 -20 0
-90 -8 -22 0
-90 -8 -26 0
-90 -8 -38 0
-90 -8 -40 0
-90 -8 -44 0
-90 -8 -46 0
-90 -8 -50 0
-90 -8 -54 0
-90 -10 -14 0
-90 -10 -18 0
-90 -10 -20 0
-90 -10 -22 0
-90 -10 -26 0
-90 -10 -38 0
-90 -10 -40 0
-90 -10 -44 0
-90 -10 -46 0
-90 -10 -50 0
-90 -10 -54 0
-90 -14 -18 0
-90 -14 -20 0
-90 -14 -22 0
-90 -14 -26 0
-90 -14 -38 0
-90 -14 -40 0
-90 -14 -44 0
-90 -14 -46 0
-90 -14 -50 0
-90 -14 -54 0
-90 -18 -20 0
-90 -18 -22 0
-90 -18 -26 0
-90 -18 -38 0
-90 -18 -40 0
-90 -18 -44 0
-90 -18 -46 0
-90 -18 -50 0
-90 -18 -54 0
-90 -20 -22 0
-90 -20 -26 0
-90 -20 -38 0
-90 -20 -40 0
-90 -20 -44 0
-90 -20 -46 0
-90 -20 -50 0
-90 -20 -54 0
-90 -22 -26 0
-90 -22 -38 0
-90 -22 -40 0
-90 -22 -44 0
-90 -22 -46 0
-90 -22 -50 0
-90 -22 -54 0
-90 -26 -38 0
-90 -26 -40 0
-90 -26 -44 0
-90 -26 -46 0
-90 -26 -50 0
-90 -26 -54 0
-90 -38 -40 0
-90 -38 -44 0
-90 -38 -46 0
-90 -38 -50 0
-90 -38 -54 0
-90 -40 -44 0
-90 -40 -46 0
-90 -40 -50 0
-90 -40 -54 0
-90 -44 -46 0
-90 -44 -50 0
-90 -44 -54 0
-90 -46 -50 0
-90 -46 -54 0
-90 -50 -54 0
-35 -36 0
91 92 0
-91 1 5 7 9 11 17 19 21 23 37 39 41 45 47 51 0
-91 -1 -5 0
-91 -1 -7 0
-91 -1 -9 0
-91 -1 -11 0
-91 -1 -17 0
-91 -1 -19 0
-91 -1 -21 0
-91 -1 -23 0
-91 -1 -37 0
-91 -1 -39 0
-91 -1 -41 0
-91 -1 -45 0
-91 -1 -47 0
-91 -1 -51 0
-91 -5 -7 0
-91 -5 -9 0
-91 -5 -11 0
-91 -5 -17 0
-91 -5 -19 0
-91 -5 -21 0
-91 -5 -23 0
-91 -5 -37 0
-91 -5 -39 0
-91 -5 -41 0
-91 -5 -45 0
-91 -5 -47 0
-91 -5 -51 0
-91 -7 -9 0
-91 -7 -11 0
-91 -7 -17 0
-91 -7 -19 0
-91 -7 -21 0
-91 -7 -23 0
-91 -7 -37 0
-91 -7 -39 0
-91 -7 -41 0
-91 -7 -45 0
-91 -7 -47 0
-91 -7 -51 0
-91 -9 -11 0
-91 -9 -17 0
-91 -9 -19 0
-91 -9 -21 0
-91 -9 -23 0
-91 -9 -37 0
-91 -9 -39 0
-91 -9 -41 0
-91 -9 -45 0
-91 -9 -47 0
-91 -9 -51 0
-91 -11 -17 0
-91 -11 -19 0
-91 -11 -21 0
-91 -11 -23 0
-91 -11 -37 0
-91 -11 -39 0
-91 -11 -41 0
-91 -11 -45 0
-91 -11 -47 0
-91 -11 -51 0
-91 -17 -19 0
-91 -17 -21 0
-91 -17 -23 0
-91 -17 -37 0
-91 -17 -39 0
-91 -17 -41 0
-91 -17 -45 0
-91 -17 -47 0
-91 -17 -51 0
-91 -19 -21 0
-91 -19 -23 0
-91 -19 -37 0
-91 -19 -39 0
-91 -19 -41 0
-91 -19 -45 0
-91 -19 -47 0
-91 -19 -51 0
-91 -21 -23 0
-91 -21 -37 0
-91 -21 -39 0
-91 -21 -41 0
-91 -21 -45 0
-91 -21 -47 0
-91 -21 -51 0
-91 -23 -37 0
-91 -23 -39 0
-91 -23 -41 0
-91 -23 -45 0
-91 -23 -47 0
-91 -23 -51 0
-91 -37 -39 0
-91 -37 -41 0
-91 -37 -45 0
-91 -37 -47 0
-91 -37 -51 0
-91 -39 -41 0
-91 -39 -45 0
-91 -39 -47 0
-91 -39 -51 0
-91 -41 -45 0
-91 -41 -47 0
-91 -41 -51 0
-91 -45 -47 0
-91 -45 -51 0
-91 -47 -51 0
-92 2 6 8 10 12 18 20 22 24 38 40 42 46 48 52 0
-92 -2 -6 0
-92 -2 -8 0
-92 -2 -10 0
-92 -2 -12 0
-92 -2 -18 0
-92 -2 -20 0
-92 -2 -22 0
-92 -2 -24 0
-92 -2 -38 0
-92 -2 -40 0
-92 -2 -42 0
-92 -2 -46 0
-92 -2 -48 0
-92 -2 -52 0
-92 -6 -8 0
-92 -6 -10 0
-92 -6 -12 0
-92 -6 -18 0
-92 -6 -20 0
-92 -6 -22 0
-92 -6 -24 0
-92 -6 -38 0
-92 -6 -40 0
-92 -6 -42 0
-92 -6 -46 0
-92 -6 -48 0
-92 -6 -52 0
-92 -8 -10 0
-92 -8 -12 0
-92 -8 -18 0
-92 -8 -20 0
-92 -8 -22 0
-92 -8 -24 0
-92 -8 -38 0
-92 -8 -40 0
-92 -8 -42 0
-92 -8 -46 0
-92 -8 -48 0
-92 -8 -52 0
-92 -10 -12 0
-92 -10 -18 0
-92 -10 -20 0
-92 -10 -22 0
-92 -10 -24 0
-92 -10 -38 0
-92 -10 -40 0
-92 -10 -42 0
-92 -10 -46 0
-92 -10 -48 0
-92 -10 -52 0
-92 -12 -18 0
-92 -12 -20 0
-92 -12 -22 0
-92 -12 -24 0
-92 -12 -38 0
-92 -12 -40 0
-92 -12 -42 0
-92 -12 -46 0
-92 -12 -48 0
-92 -12 -52 0
-92 -18 -20 0
-92 -18 -22 0
-92 -18 -24 0
-92 -18 -38 0
-92 -18 -40 0
-92 -18 -42 0
-92 -18 -46 0
-92 -18 -48 0
-92 -18 -52 0
-92 -20 -22 0
-92 -20 -24 0
-92 -20 -38 0
-92 -20 -40 0
-92 -20 -42 0
-92 -20 -46 0
-92 -20 -48 0
-92 -20 -52 0
-92 -22 -24 0
-92 -22 -38 0
-92 -22 -40 0
-92 -22 -42 0
-92 -22 -46 0
-92 -22 -48 0
-92 -22 -52 0
-92 -24 -38 0
-92 -24 -40 0
-92 -24 -42 0
-92 -24 -46 0
-92 -24 -48 0
-92 -24 -52 0
-92 -38 -40 0
-92 -38 -42 0
-92 -38 -46 0
-92 -38 -48 0
-92 -38 -52 0
-92 -40 -42 0
-92 -40 -46 0
-92 -40 -48 0
-92 -40 -52 0
-92 -42 -46 0
-92 -42 -48 0
-92 -42 -52 0
-92 -46 -48 0
-92 -46 -52 0
-92 -48 -52 0
-37 -38 0
93 94 0
-93 1 3 9 11 13 15 21 23 25 31 33 35 51 53 55 0
-93 -1 -3 0
-93 -1 -9 0
-93 -1 -11 0
-93 -1 -13 0
-93 -1 -15 0
-93 -1 -21 0
-93 -1 -23 0
-93 -1 -25 0
-93 -1 -31 0
-93 -1 -33 0
-93 -1 -35 0
-93 -1 -51 0
-93 -1 -53 0
-93 -1 -55 0
-93 -3 -9 0
-93 -3 -11 0
-93 -3 -13 0
-93 -3 -15 0
-93 -3 -21 0
-93 -3 -23 0
-93 -3 -25 0
-93 -3 -31 0
-93 -3 -33 0
-93 -3 -35 0
-93 -3 -51 0
-93 -3 -53 0
-93 -3 -55 0
-93 -9 -11 0
-93 -9 -13 0
-93 -9 -15 0
-93 -9 -21 0
-93 -9 -23 0
-93 -9 -25 0
-93 -9 -31 0
-93 -9 -33 0
-93 -9 -35 0
-93 -9 -51 0
-93 -9 -53 0
-93 -9 -55 0
-93 -11 -13 0
-93 -11 -15 0
-93 -11 -21 0
-93 -11 -23 0
-93 -11 -25 0
-93 -11 -31 0
-93 -11 -33 0
-93 -11 -35 0
-93 -11 -51 0
-93 -11 -53 0
-93 -11 -55 0
-93 -13 -15 0
-93 -13 -21 0
-93 -13 -23 0
-93 -13 -25 0
-93 -13 -31 0
-93 -13 -33 0
-93 -13 -35 0
-93 -13 -51 0
-93 -13 -53 0
-93 -13 -55 0
-93 -15 -21 0
-93 -15 -23 0
-93 -15 -25 0
-93 -15 -31 0
-93 -15 -33 0
-93 -15 -35 0
-93 -15 -51 0
-93 -15 -53 0
-93 -15 -55 0
-93 -21 -23 0
-93 -21 -25 0
-93 -21 -31 0
-93 -21 -33 0
-93 -21 -35 0
-93 -21 -51 0
-93 -21 -53 0
-93 -21 -55 0
-93 -23 -25 0
-93 -23 -31 0
-93 -23 -33 0
-93 -23 -35 0
-93 -23 -51 0
-93 -23 -53 0
-93 -23 -55 0
-93 -25 -31 0
-93 -25 -33 0
-93 -25 -35 0
-93 -25 -51 0
-93 -25 -53 0
-93 -25 -55 0
-93 -31 -33 0
-93 -31 -35 0
-93 -31 -51 0
-93 -31 -53 0
-93 -31 -55 0
-93 -33 -35 0
-93 -33 -51 0
-93 -33 -53 0
-93 -33 -55 0
-93 -35 -51 0
-93 -35 -53 0
-93 -35 -55 0
-93 -51 -53 0
-93 -51 -55 0
-93 -53 -55 0
-94 2 4 10 12 14 16 22 24 26 32 34 36 52 54 56 0
-94 -2 -4 0
-94 -2 -10 0
-94 -2 -12 0
-94 -2 -14 0
-94 -2 -16 0
-94 -2 -22 0
-94 -2 -24 0
-94 -2 -26 0
-94 -2 -32 0
-94 -2 -34 0
-94 -2 -36 0
-94 -2 -52 0
-94 -2 -54 0
-94 -2 -56 0
-94 -4 -10 0
-94 -4 -12 0
-94 -4 -14 0
-94 -4 -16 0
-94 -4 -22 0
-94 -4 -24 0
-94 -4 -26 0
-94 -4 -32 0
-94 -4 -34 0
-94 -4 -36 0
-94 -4 -52 0
-94 -4 -54 0
-94 -4 -56 0
-94 -10 -12 0
-94 -10 -14 0
-94 -10 -16 0
-94 -10 -22 0
-94 -10 -24 0
-94 -10 -26 0
-94 -10 -32 0
-94 -10 -34 0
-94 -10 -36 0
-94 -10 -52 0
-94 -10 -54 0
-94 -10 -56 0
-94 -12 -14 0
-94 -12 -16 0
-94 -12 -22 0
-94 -12 -24 0
-94 -12 -26 0
-94 -12 -32 0
-94 -12 -34 0
-94 -12 -36 0
-94 -12 -52 0
-94 -12 -54 0
-94 -12 -56 0
-94 -14 -16 0
-94 -14 -22 0
-94 -14 -24 0
-94 -14 -26 0
-94 -14 -32 0
-94 -14 -34 0
-94 -14 -36 0
-94 -14 -52 0
-94 -14 -54 0
-94 -14 -56 0
-94 -16 -22 0
-94 -16 -24 0
-94 -16 -26 0
-94 -16 -32 0
-94 -16 -34 0
-94 -16 -36 0
-94 -16 -52 0
-94 -16 -54 0
-94 -16 -56 0
-94 -22 -24 0
-94 -22 -26 0
-94 -22 -32 0
-94 -22 -34 0
-94 -22 -36 0
-94 -22 -52 0
-94 -22 -54 0
-94 -22 -56 0
-94 -24 -26 0
-94 -24 -32 0
-94 -24 -34 0
-94 -24 -36 0
-94 -24 -52 0
-94 -24 -54 0
-94 -24 -56 0
-94 -26 -32 0
-94 -26 -34 0
-94 -26 -36 0
-94 -26 -52 0
-94 -26 -54 0
-94 -26 -56 0
-94 -32 -34 0
-94 -32 -36 0
-94 -32 -52 0
-94 -32 -54 0
-94 -32 -56 0
-94 -34 -36 0
-94 -34 -52 0
-94 -34 -54 0
-94 -34 -56 0
-94 -36 -52 0
-94 -36 -54 0
-94 -36 -56 0
-94 -52 -54 0
-94 -52 -56 0
-94 -54 -56 0
-39 -40 0
95 96 0
-95 1 3 7 11 13 15 19 23 25 29 33 35 47 49 55 0
-95 -1 -3 0
-95 -1 -7 0
-95 -1 -11 0
-95 -1 -13 0
-95 -1 -15 0
-95 -1 -19 0
-95 -1 -23 0
-95 -1 -25 0
-95 -1 -29 0
-95 -1 -33 0
-95 -1 -35 0
-95 -1 -47 0
-95 -1 -49 0
-95 -1 -55 0
-95 -3 -7 0
-95 -3 -11 0
-95 -3 -13 0
-95 -3 -15 0
-95 -3 -19 0
-95 -3 -23 0
-95 -3 -25 0
-95 -3 -29 0
-95 -3 -33 0
-95 -3 -35 0
-95 -3 -47 0
-95 -3 -49 0
-95 -3 -55 0
-95 -7 -11 0
-95 -7 -13 0
-95 -7 -15 0
-95 -7 -19 0
-95 -7 -23 0
-95 -7 -25 0
-95 -7 -29 0
-95 -7 -33 0
-95 -7 -35 0
-95 -7 -47 0
-95 -7 -49 0
-95 -7 -55 0
-95 -11 -13 0
-95 -11 -15 0
-95 -11 -19 0
-95 -11 -23 0
-95 -11 -25 0
-95 -11 -29 0
-95 -11 -33 0
-95 -11 -35 0
-95 -11 -47 0
-95 -11 -49 0
-95 -11 -55 0
-95 -13 -15 0
-95 -13 -19 0
-95 -13 -23 0
-95 -13 -25 0
-95 -13 -29 0
-95 -13 -33 0
-95 -13 -35 0
-95 -13 -47 0
-95 -13 -49 0
-95 -13 -55 0
-95 -15 -19 0
-95 -15 -23 0
-95 -15 -25 0
-95 -15 -29 0
-95 -15 -33 0
-95 -15 -35 0
-95 -15 -47 0
-95 -15 -49 0
-95 -15 -55 0
-95 -19 -23 0
-95 -19 -25 0
-95 -19 -29 0
-95 -19 -33 0
-95 -19 -35 0
-95 -19 -47 0
-95 -19 -49 0
-95 -19 -55 0
-95 -23 -25 0
-95 -23 -29 0
-95 -23 -33 0
-95 -23 -35 0
-95 -23 -47 0
-95 -23 -49 0
-95 -23 -55 0
-95 -25 -29 0
-95 -25 -33 0
-95 -25 -35 0
-95 -25 -47 0
-95 -25 -49 0
-95 -25 -55 0
-95 -29 -33 0
-95 -29 -35 0
-95 -29 -47 0
-95 -29 -49 0
-95 -29 -55 0
-95 -33 -35 0
-95 -33 -47 0
-95 -33 -49 0
-95 -33 -55 0
-95 -35 -47 0
-95 -35 -49 0
-95 -35 -55 0
-95 -47 -49 0
-95 -47 -55 0
-95 -49 -55 0
-96 2 4 8 12 14 16 20 24 26 30 34 36 48 50 56 0
-96 -2 -4 0
-96 -2 -8 0
-96 -2 -12 0
-96 -2 -14 0
-96 -2 -16 0
-96 -2 -20 0
-96 -2 -24 0
-96 -2 -26 0
-96 -2 -30 0
-96 -2 -34 0
-96 -2 -36 0
-96 -2 -48 0
-96 -2 -50 0
-96 -2 -56 0
-96 -4 -8 0
-96 -4 -12 0
-96 -4 -14 0
-96 -4 -16 0
-96 -4 -20 0
-96 -4 -24 0
-96 -4 -26 0
-96 -4 -30 0
-96 -4 -34 0
-96 -4 -36 0
-96 -4 -48 0
-96 -4 -50 0
-96 -4 -56 0
-96 -8 -12 0
-96 -8 -14 0
-96 -8 -16 0
-96 -8 -20 0
-96 -8 -24 0
-96 -8 -26 0
-96 -8 -30 0
-96 -8 -34 0
-96 -8 -36 0
-96 -8 -48 0
-96 -8 -50 0
-96 -8 -56 0
-96 -12 -14 0
-96 -12 -16 0
-96 -12 -20 0
-96 -12 -24 0
-96 -12 -26 0
-96 -12 -30 0
-96 -12 -34 0
-96 -12 -36 0
-96 -12 -48 0
-96 -12 -50 0
-96 -12 -56 0
-96 -14 -16 0
-96 -14 -20 0
-96 -14 -24 0
-96 -14 -26 0
-96 -14 -30 0
-96 -14 -34 0
-96 -14 -36 0
-96 -14 -48 0
-96 -14 -50 0
-96 -14 -56 0
-96 -16 -20 0
-96 -16 -24 0
-96 -16 -26 0
-96 -16 -30 0
-96 -16 -34 0
-96 -16 -36 0
-96 -16 -48 0
-96 -16 -50 0
-96 -16 -56 0
-96 -20 -24 0
-96 -20 -26 0
-96 -20 -30 0
-96 -20 -34 0
-96 -20 -36 0
-96 -20 -48 0
-96 -20 -50 0
-96 -20 -56 0
-96 -24 -26 0
-96 -24 -30 0
-96 -24 -34 0
-96 -24 -36 0
-96 -24 -48 0
-96 -24 -50 0
-96 -24 -56 0
-96 -26 -30 0
-96 -26 -34 0
-96 -26 -36 0
-96 -26 -48 0
-96 -26 -50 0
-96 -26 -56 0
-96 -30 -34 0
-96 -30 -36 0
-96 -30 -48 0
-96 -30 -50 0
-96 -30 -56 0
-96 -34 -36 0
-96 -34 -48 0
-96 -34 -50 0
-96 -34 -56 0
-96 -36 -48 0
-96 -36 -50 0
-96 -36 -56 0
-96 -48 -50 0
-96 -48 -56 0
-96 -50 -56 0
-41 -42 0
97 98 0
-97 1 3 7 9 13 15 19 21 25 29 31 35 45 49 53 0
-97 -1 -3 0
-97 -1 -7 0
-97 -1 -9 0
-97 -1 -13 0
-97 -1 -15 0
-97 -1 -19 0
-97 -1 -21 0
-97 -1 -25 0
-97 -1 -29 0
-97 -1 -31 0
-97 -1 -35 0
-97 -1 -45 0
-97 -1 -49 0
-97 -1 -53 0
-97 -3 -7 0
-97 -3 -9 0
-97 -3 -13 0
-97 -3 -15 0
-97 -3 -19 0
-97 -3 -21 0
-97 -3 -25 0
-97 -3 -29 0
-97 -3 -31 0
-97 -3 -35 0
-97 -3 -45 0
-97 -3 -49 0
-97 -3 -53 0
-97 -7 -9 0
-97 -7 -13 0
-97 -7 -15 0
-97 -7 -19 0
-97 -7 -21 0
-97 -7 -25 0
-97 -7 -29 0
-97 -7 -31 0
-97 -7 -35 0
-97 -7 -45 0
-97 -7 -49 0
-97 -7 -53 0
-97 -9 -13 0
-97 -9 -15 0
-97 -9 -19 0
-97 -9 -21 0
-97 -9 -25 0
-97 -9 -29 0
-97 -9 -31 0
-97 -9 -35 0
-97 -9 -45 0
-97 -9 -49 0
-97 -9 -53 0
-97 -13 -15 0
-97 -13 -19 0
-97 -13 -21 0
-97 -13 -25 0
-97 -13 -29 0
-97 -13 -31 0
-97 -13 -35 0
-97 -13 -45 0
-97 -13 -49 0
-97 -13 -53 0
-97 -15 -19 0
-97 -15 -21 0
-97 -15 -25 0
-97 -15 -29 0
-97 -15 -31 0
-97 -15 -35 0
-97 -15 -45 0
-97 -15 -49 0
-97 -15 -53 0
-97 -19 -21 0
-97 -19 -25 0
-97 -19 -29 0
-97 -19 -31 0
-97 -19 -35 0
-97 -19 -45 0
-97 -19 -49 0
-97 -19 -53 0
-97 -21 -25 0
-97 -21 -29 0
-97 -21 -31 0
-97 -21 -35 0
-97 -21 -45 0
-97 -21 -49 0
-97 -21 -53 0
-97 -25 -29 0
-97 -25 -31 0
-97 -25 -35 0
-97 -25 -45 0
-97 -25 -49 0
-97 -25 -53 0
-97 -29 -31 0
-97 -29 -35 0
-97 -29 -45 0
-97 -29 -49 0
-97 -29 -53 0
-97 -31 -35 0
-97 -31 -45 0
-97 -31 -49 0
-97 -31 -53 0
-97 -35 -45 0
-97 -35 -49 0
-97 -35 -53 0
-97 -45 -49 0
-97 -45 -53 0
-97 -49 -53 0
-98 2 4 8 10 14 16 20 22 26 30 32 36 46 50 54 0
-98 -2 -4 0
-98 -2 -8 0
-98 -2 -10 0
-98 -2 -14 0
-98 -2 -16 0
-98 -2 -20 0
-98 -2 -22 0
-98 -2 -26 0
-98 -2 -30 0
-98 -2 -32 0
-98 -2 -36 0
-98 -2 -46 0
-98 -2 -50 0
-98 -2 -54 0
-98 -4 -8 0
-98 -4 -10 0
-98 -4 -14 0
-98 -4 -16 0
-98 -4 -20 0
-98 -4 -22 0
-98 -4 -26 0
-98 -4 -30 0
-98 -4 -32 0
-98 -4 -36 0
-98 -4 -46 0
-98 -4 -50 0
-98 -4 -54 0
-98 -8 -10 0
-98 -8 -14 0
-98 -8 -16 0
-98 -8 -20 0
-98 -8 -22 0
-98 -8 -26 0
-98 -8 -30 0
-98 -8 -32 0
-98 -8 -36 0
-98 -8 -46 0
-98 -8 -50 0
-98 -8 -54 0
-98 -10 -14 0
-98 -10 -16 0
-98 -10 -20 0
-98 -10 -22 0
-98 -10 -26 0
-98 -10 -30 0
-98 -10 -32 0
-98 -10 -36 0
-98 -10 -46 0
-98 -10 -50 0
-98 -10 -54 0
-98 -14 -16 0
-98 -14 -20 0
-98 -14 -22 0
-98 -14 -26 0
-98 -14 -30 0
-98 -14 -32 0
-98 -14 -36 0
-98 -14 -46 0
-98 -14 -50 0
-98 -14 -54 0
-98 -16 -20 0
-98 -16 -22 0
-98 -16 -26 0
-98 -16 -30 0
-98 -16 -32 0
-98 -16 -36 0
-98 -16 -46 0
-98 -16 -50 0
-98 -16 -54 0
-98 -20 -22 0
-98 -20 -26 0
-98 -20 -30 0
-98 -20 -32 0
-98 -20 -36 0
-98 -20 -46 0
-98 -20 -50 0
-98 -20 -54 0
-98 -22 -26 0
-98 -22 -30 0
-98 -22 -32 0
-98 -22 -36 0
-98 -22 -46 0
-98 -22 -50 0
-98 -22 -54 0
-98 -26 -30 0
-98 -26 -32 0
-98 -26 -36 0
-98 -26 -46 0
-98 -26 -50 0
-98 -26 -54 0
-98 -30 -32 0
-98 -30 -36 0
-98 -30 -46 0
-98 -30 -50 0
-98 -30 -54 0
-98 -32 -36 0
-98 -32 -46 0
-98 -32 -50 0
-98 -32 -54 0
-98 -36 -46 0
-98 -36 -50 0
-98 -36 -54 0
-98 -46 -50 0
-98 -46 -54 0
-98 -50 -54 0
-43 -44 0
99 100 0
-99 1 3 7 9 11 15 19 21 23 29 31 33 45 47 51 0
-99 -1 -3 0
-99 -1 -7 0
-99 -1 -9 0
-99 -1 -11 0
-99 -1 -15 0
-99 -1 -19 0
-99 -1 -21 0
-99 -1 -23 0
-99 -1 -29 0
-99 -1 -31 0
-99 -1 -33 0
-99 -1 -45 0
-99 -1 -47 0
-99 -1 -51 0
-99 -3 -7 0
-99 -3 -9 0
-99 -3 -11 0
-99 -3 -15 0
-99 -3 -19 0
-99 -3 -21 0
-99 -3 -23 0
-99 -3 -29 0
-99 -3 -31 0
-99 -3 -33 0
-99 -3 -45 0
-99 -3 -47 0
-99 -3 -51 0
-99 -7 -9 0
-99 -7 -11 0
-99 -7 -15 0
-99 -7 -19 0
-99 -7 -21 0
-99 -7 -23 0
-99 -7 -29 0
-99 -7 -31 0
-99 -7 -33 0
-99 -7 -45 0
-99 -7 -47 0
-99 -7 -51 0
-99 -9 -11 0
-99 -9 -15 0
-99 -9 -19 0
-99 -9 -21 0
-99 -9 -23 0
-99 -9 -29 0
-99 -9 -31 0
-99 -9 -33 0
-99 -9 -45 0
-99 -9 -47 0
-99 -9 -51 0
-99 -11 -15 0
-99 -11 -19 0
-99 -11 -21 0
-99 -11 -23 0
-99 -11 -29 0
-99 -11 -31 0
-99 -11 -33 0
-99 -11 -45 0
-99 -11 -47 0
-99 -11 -51 0
-99 -15 -19 0
-99 -15 -21 0
-99 -15 -23 0
-99 -15 -29 0
-99 -15 -31 0
-99 -15 -33 0
-99 -15 -45 0
-99 -15 -47 0
-99 -15 -51 0
-99 -19 -21 0
-99 -19 -23 0
-99 -19 -29 0
-99 -19 -31 0
-99 -19 -33 0
-99 -19 -45 0
-99 -19 -47 0
-99 -19 -51 0
-99 -21 -23 0
-99 -21 -29 0
-99 -21 -31 0
-99 -21 -33 0
-99 -21 -45 0
-99 -21 -47 0
-99 -21 -51 0
-99 -23 -29 0
-99 -23 -31 0
-99 -23 -33 0
-99 -23 -45 0
-99 -23 -47 0
-99 -23 -51 0
-99 -29 -31 0
-99 -29 -33 0
-99 -29 -45 0
-99 -29 -47 0
-99 -29 -51 0
-99 -31 -33 0
-99 -31 -45 0
-99 -31 -47 0
-99 -31 -51 0
-99 -33 -45 0
-99 -33 -47 0
-99 -33 -51 0
-99 -45 -47 0
-99 -45 -51 0
-99 -47 -51 0
-100 2 4 8 10 12 16 20 22 24 30 32 34 46 48 52 0
-100 -2 -4 0
-100 -2 -8 0
-100 -2 -10 0
-100 -2 -12 0
-100 -2 -16 0
-100 -2 -20 0
-100 -2 -22 0
-100 -2 -24 0
-100 -2 -30 0
-100 -2 -32 0
-100 -2 -34 0
-100 -2 -46 0
-100 -2 -48 0
-100 -2 -52 0
-100 -4 -8 0
-100 -4 -10 0
-100 -4 -12 0
-100 -4 -16 0
-100 -4 -20 0
-100 -4 -22 0
-100 -4 -24 0
-100 -4 -30 0
-100 -4 -32 0
-100 -4 -34 0
-100 -4 -46 0
-100 -4 -48 0
-100 -4 -52 0
-100 -8 -10 0
-100 -8 -12 0
-100 -8 -16 0
-100 -8 -20 0
-100 -8 -22 0
-100 -8 -24 0
-100 -8 -30 0
-100 -8 -32 0
-100 -8 -34 0
-100 -8 -46 0
-100 -8 -48 0
-100 -8 -52 0
-100 -10 -12 0
-100 -10 -16 0
-100 -10 -20 0
-100 -10 -22 0
-100 -10 -24 0
-100 -10 -30 0
-100 -10 -32 0
-100 -10 -34 0
-100 -10 -46 0
-100 -10 -48 0
-100 -10 -52 0
-100 -12 -16 0
-100 -12 -20 0
-100 -12 -22 0
-100 -12 -24 0
-100 -12 -30 0
-100 -12 -32 0
-100 -12 -34 0
-100 -12 -46 0
-100 -12 -48 0
-100 -12 -52 0
-100 -16 -20 0
-100 -16 -22 0
-100 -16 -24 0
-100 -16 -30 0
-100 -16 -32 0
-100 -16 -34 0
-100 -16 -46 0
-100 -16 -48 0
-100 -16 -52 0
-100 -20 -22 0
-100 -20 -24 0
-100 -20 -30 0
-100 -20 -32 0
-100 -20 -34 0
-100 -20 -46 0
-100 -20 -48 0
-100 -20 -52 0
-100 -22 -24 0
-100 -22 -30 0
-100 -22 -32 0
-100 -22 -34 0
-100 -22 -46 0
-100 -22 -48 0
-100 -22 -52 0
-100 -24 -30 0
-100 -24 -32 0
-100 -24 -34 0
-100 -24 -46 0
-100 -24 -48 0
-100 -24 -52 0
-100 -30 -32 0
-100 -30 -34 0
-100 -30 -46 0
-100 -30 -48 0
-100 -30 -52 0
-100 -32 -34 0
-100 -32 -46 0
-100 -32 -48 0
-100 -32 -52 0
-100 -34 -46 0
-100 -34 -48 0
-100 -34 -52 0
-100 -46 -48 0
-100 -46 -52 0
-100 -48 -52 0
-45 -46 0
101 102 0
-101 1 3 5 11 13 15 17 23 25 27 33 35 41 43 55 0
-101 -1 -3 0
-101 -1 -5 0
-101 -1 -11 0
-101 -1 -13 0
-101 -1 -15 0
-101 -1 -17 0
-101 -1 -23 0
-101 -1 -25 0
-101 -1 -27 0
-101 -1 -33 0
-101 -1 -35 0
-101 -1 -41 0
-101 -1 -43 0
-101 -1 -55 0
-101 -3 -5 0
-101 -3 -11 0
-101 -3 -13 0
-101 -3 -15 0
-101 -3 -17 0
-101 -3 -23 0
-101 -3 -25 0
-101 -3 -27 0
-101 -3 -33 0
-101 -3 -35 0
-101 -3 -41 0
-101 -3 -43 0
-101 -3 -55 0
-101 -5 -11 0
-101 -5 -13 0
-101 -5 -15 0
-101 -5 -17 0
-101 -5 -23 0
-101 -5 -25 0
-101 -5 -27 0
-101 -5 -33 0
-101 -5 -35 0
-101 -5 -41 0
-101 -5 -43 0
-101 -5 -55 0
-101 -11 -13 0
-101 -11 -15 0
-101 -11 -17 0
-101 -11 -23 0
-101 -11 -25 0
-101 -11 -27 0
-101 -11 -33 0
-101 -11 -35 0
-101 -11 -41 0
-101 -11 -43 0
-101 -11 -55 0
-101 -13 -15 0
-101 -13 -17 0
-101 -13 -23 0
-101 -13 -25 0
-101 -13 -27 0
-101 -13 -33 0
-101 -13 -35 0
-101 -13 -41 0
-101 -13 -43 0
-101 -13 -55 0
-101 -15 -17 0
-101 -15 -23 0
-101 -15 -25 0
-101 -15 -27 0
-101 -15 -33 0
-101 -15 -35 0
-101 -15 -41 0
-101 -15 -43 0
-101 -15 -55 0
-101 -17 -23 0
-101 -17 -25 0
-101 -17 -27 0
-101 -17 -33 0
-101 -17 -35 0
-101 -17 -41 0
-101 -17 -43 0
-101 -17 -55 0
-101 -23 -25 0
-101 -23 -27 0
-101 -23 -33 0
-101 -23 -35 0
-101 -23 -41 0
-101 -23 -43 0
-101 -23 -55 0
-101 -25 -27 0
-101 -25 -33 0
-101 -25 -35 0
-101 -25 -41 0
-101 -25 -43 0
-101 -25 -55 0
-101 -27 -33 0
-101 -27 -35 0
-101 -27 -41 0
-101 -27 -43 0
-101 -27 -55 0
-101 -33 -35 0
-101 -33 -41 0
-101 -33 -43 0
-101 -33 -55 0
-101 -35 -41 0
-101 -35 -43 0
-101 -35 -55 0
-101 -41 -43 0
-101 -41 -55 0
-101 -43 -55 0
-102 2 4 6 12 14 16 18 24 26 28 34 36 42 44 56 0
-102 -2 -4 0
-102 -2 -6 0
-102 -2 -12 0
-102 -2 -14 0
-102 -2 -16 0
-102 -2 -18 0
-102 -2 -24 0
-102 -2 -26 0
-102 -2 -28 0
-102 -2 -34 0
-102 -2 -36 0
-102 -2 -42 0
-102 -2 -44 0
-102 -2 -56 0
-102 -4 -6 0
-102 -4 -12 0
-102 -4 -14 0
-102 -4 -16 0
-102 -4 -18 0
-102 -4 -24 0
-102 -4 -26 0
-102 -4 -28 0
-102 -4 -34 0
-102 -4 -36 0
-102 -4 -42 0
-102 -4 -44 0
-102 -4 -56 0
-102 -6 -12 0
-102 -6 -14 0
-102 -6 -16 0
-102 -6 -18 0
-102 -6 -24 0
-102 -6 -26 0
-102 -6 -28 0
-102 -6 -34 0
-102 -6 -36 0
-102 -6 -42 0
-102 -6 -44 0
-102 -6 -56 0
-102 -12 -14 0
-102 -12 -16 0
-102 -12 -18 0
-102 -12 -24 0
-102 -12 -26 0
-102 -12 -28 0
-102 -12 -34 0
-102 -12 -36 0
-102 -12 -42 0
-102 -12 -44 0
-102 -12 -56 0
-102 -14 -16 0
-102 -14 -18 0
-102 -14 -24 0
-102 -14 -26 0
-102 -14 -28 0
-102 -14 -34 0
-102 -14 -36 0
-102 -14 -42 0
-102 -14 -44 0
-102 -14 -56 0
-102 -16 -18 0
-102 -16 -24 0
-102 -16 -26 0
-102 -16 -28 0
-102 -16 -34 0
-102 -16 -36 0
-102 -16 -42 0
-102 -16 -44 0
-102 -16 -56 0
-102 -18 -24 0
-102 -18 -26 0
-102 -18 -28 0
-102 -18 -34 0
-102 -18 -36 0
-102 -18 -42 0
-102 -18 -44 0
-102 -18 -56 0
-102 -24 -26 0
-102 -24 -28 0
-102 -24 -34 0
-102 -24 -36 0
-102 -24 -42 0
-102 -24 -44 0
-102 -24 -56 0
-102 -26 -28 0
-102 -26 -34 0
-102 -26 -36 0
-102 -26 -42 0
-102 -26 -44 0
-102 -26 -56 0
-102 -28 -34 0
-102 -28 -36 0
-102 -28 -42 0
-102 -28 -44 0
-102 -28 -56 0
-102 -34 -36 0
-102 -34 -42 0
-102 -34 -44 0
-102 -34 -56 0
-102 -36 -42 0
-102 -36 -44 0
-102 -36 -56 0
-102 -42 -44 0
-102 -42 -56 0
-102 -44 -56 0
-47 -48 0
103 104 0
-103 1 3 5 9 13 15 17 21 25 27 31 35 39 43 53 0
-103 -1 -3 0
-103 -1 -5 0
-103 -1 -9 0
-103 -1 -13 0
-103 -1 -15 0
-103 -1 -17 0
-103 -1 -21 0
-103 -1 -25 0
-103 -1 -27 0
-103 -1 -31 0
-103 -1 -35 0
-103 -1 -39 0
-103 -1 -43 0
-103 -1 -53 0
-103 -3 -5 0
-103 -3 -9 0
-103 -3 -13 0
-103 -3 -15 0
-103 -3 -17 0
-103 -3 -21 0
-103 -3 -25 0
-103 -3 -27 0
-103 -3 -31 0
-103 -3 -35 0
-103 -3 -39 0
-103 -3 -43 0
-103 -3 -53 0
-103 -5 -9 0
-103 -5 -13 0
-103 -5 -15 0
-103 -5 -17 0
-103 -5 -21 0
-103 -5 -25 0
-103 -5 -27 0
-103 -5 -31 0
-103 -5 -35 0
-103 -5 -39 0
-103 -5 -43 0
-103 -5 -53 0
-103 -9 -13 0
-103 -9 -15 0
-103 -9 -17 0
-103 -9 -21 0
-103 -9 -25 0
-103 -9 -27 0
-103 -9 -31 0
-103 -9 -35 0
-103 -9 -39 0
-103 -9 -43 0
-103 -9 -53 0
-103 -13 -15 0
-103 -13 -17 0
-103 -13 -21 0
-103 -13 -25 0
-103 -13 -27 0
-103 -13 -31 0
-103 -13 -35 0
-103 -13 -39 0
-103 -13 -43 0
-103 -13 -53 0
-103 -15 -17 0
-103 -15 -21 0
-103 -15 -25 0
-103 -15 -27 0
-103 -15 -31 0
-103 -15 -35 0
-103 -15 -39 0
-103 -15 -43 0
-103 -15 -53 0
-103 -17 -21 0
-103 -17 -25 0
-103 -17 -27 0
-103 -17 -31 0
-103 -17 -35 0
-103 -17 -39 0
-103 -17 -43 0
-103 -17 -53 0
-103 -21 -25 0
-103 -21 -27 0
-103 -21 -31 0
-103 -21 -35 0
-103 -21 -39 0
-103 -21 -43 0
-103 -21 -53 0
-103 -25 -27 0
-103 -25 -31 0
-103 -25 -35 0
-103 -25 -39 0
-103 -25 -43 0
-103 -25 -53 0
-103 -27 -31 0
-103 -27 -35 0
-103 -27 -39 0
-103 -27 -43 0
-103 -27 -53 0
-103 -31 -35 0
-103 -31 -39 0
-103 -31 -43 0
-103 -31 -53 0
-103 -35 -39 0
-103 -35 -43 0
-103 -35 -53 0
-103 -39 -43 0
-103 -39 -53 0
-103 -43 -53 0
-104 2 4 6 10 14 16 18 22 26 28 32 36 40 44 54 0
-104 -2 -4 0
-104 -2 -6 0
-104 -2 -10 0
-104 -2 -14 0
-104 -2 -16 0
-104 -2 -18 0
-104 -2 -22 0
-104 -2 -26 0
-104 -2 -28 0
-104 -2 -32 0
-104 -2 -36 0
-104 -2 -40 0
-104 -2 -44 0
-104 -2 -54 0
-104 -4 -6 0
-104 -4 -10 0
-104 -4 -14 0
-104 -4 -16 0
-104 -4 -18 0
-104 -4 -22 0
-104 -4 -26 0
-104 -4 -28 0
-104 -4 -32 0
-104 -4 -36 0
-104 -4 -40 0
-104 -4 -44 0
-104 -4 -54 0
-104 -6 -10 0
-104 -6 -14 0
-104 -6 -16 0
-104 -6 -18 0
-104 -6 -22 0
-104 -6 -26 0
-104 -6 -28 0
-104 -6 -32 0
-104 -6 -36 0
-104 -6 -40 0
-104 -6 -44 0
-104 -6 -54 0
-104 -10 -14 0
-104 -10 -16 0
-104 -10 -18 0
-104 -10 -22 0
-104 -10 -26 0
-104 -10 -28 0
-104 -10 -32 0
-104 -10 -36 0
-104 -10 -40 0
-104 -10 -44 0
-104 -10 -54 0
-104 -14 -16 0
-104 -14 -18 0
-104 -14 -22 0
-104 -14 -26 0
-104 -14 -28 0
-104 -14 -32 0
-104 -14 -36 0
-104 -14 -40 0
-104 -14 -44 0
-104 -14 -54 0
-104 -16 -18 0
-104 -16 -22 0
-104 -16 -26 0
-104 -16 -28 0
-104 -16 -32 0
-104 -16 -36 0
-104 -16 -40 0
-104 -16 -44 0
-104 -16 -54 0
-104 -18 -22 0
-104 -18 -26 0
-104 -18 -28 0
-104 -18 -32 0
-104 -18 -36 0
-104 -18 -40 0
-104 -18 -44 0
-104 -18 -54 0
-104 -22 -26 0
-104 -22 -28 0
-104 -22 -32 0
-104 -22 -36 0
-104 -22 -40 0
-104 -22 -44 0
-104 -22 -54 0
-104 -26 -28 0
-104 -26 -32 0
-104 -26 -36 0
-104 -26 -40 0
-104 -26 -44 0
-104 -26 -54 0
-104 -28 -32 0
-104 -28 -36 0
-104 -28 -40 0
-104 -28 -44 0
-104 -28 -54 0
-104 -32 -36 0
-104 -32 -40 0
-104 -32 -44 0
-104 -32 -54 0
-104 -36 -40 0
-104 -36 -44 0
-104 -36 -54 0
-104 -40 -44 0
-104 -40 -54 0
-104 -44 -54 0
-49 -50 0
105 106 0
-105 1 3 5 9 11 15 17 21 23 27 31 33 39 41 51 0
-105 -1 -3 0
-105 -1 -5 0
-105 -1 -9 0
-105 -1 -11 0
-105 -1 -15 0
-105 -1 -17 0
-105 -1 -21 0
-105 -1 -23 0
-105 -1 -27 0
-105 -1 -31 0
-105 -1 -33 0
-105 -1 -39 0
-105 -1 -41 0
-105 -1 -51 0
-105 -3 -5 0
-105 -3 -9 0
-105 -3 -11 0
-105 -3 -15 0
-105 -3 -17 0
-105 -3 -21 0
-105 -3 -23 0
-105 -3 -27 0
-105 -3 -31 0
-105 -3 -33 0
-105 -3 -39 0
-105 -3 -41 0
-105 -3 -51 0
-105 -5 -9 0
-105 -5 -11 0
-105 -5 -15 0
-105 -5 -17 0
-105 -5 -21 0
-105 -5 -23 0
-105 -5 -27 0
-105 -5 -31 0
-105 -5 -33 0
-105 -5 -39 0
-105 -5 -41 0
-105 -5 -51 0
-105 -9 -11 0
-105 -9 -15 0
-105 -9 -17 0
-105 -9 -21 0
-105 -9 -23 0
-105 -9 -27 0
-105 -9 -31 0
-105 -9 -33 0
-105 -9 -39 0
-105 -9 -41 0
-105 -9 -51 0
-105 -11 -15 0
-105 -11 -17 0
-105 -11 -21 0
-105 -11 -23 0
-105 -11 -27 0
-105 -11 -31 0
-105 -11 -33 0
-105 -11 -39 0
-105 -11 -41 0
-105 -11 -51 0
-105 -15 -17 0
-105 -15 -21 0
-105 -15 -23 0
-105 -15 -27 0
-105 -15 -31 0
-105 -15 -33 0
-105 -15 -39 0
-105 -15 -41 0
-105 -15 -51 0
-105 -17 -21 0
-105 -17 -23 0
-105 -17 -27 0
-105 -17 -31 0
-105 -17 -33 0
-105 -17 -39 0
-105 -17 -41 0
-105 -17 -51 0
-105 -21 -23 0
-105 -21 -27 0
-105 -21 -31 0
-105 -21 -33 0
-105 -21 -39 0
-105 -21 -41 0
-105 -21 -51 0
-105 -23 -27 0
-105 -23 -31 0
-105 -23 -33 0
-105 -23 -39 0
-105 -23 -41 0
-105 -23 -51 0
-105 -27 -31 0
-105 -27 -33 0
-105 -27 -39 0
-105 -27 -41 0
-105 -27 -51 0
-105 -31 -33 0
-105 -31 -39 0
-105 -31 -41 0
-105 -31 -51 0
-105 -33 -39 0
-105 -33 -41 0
-105 -33 -51 0
-105 -39 -41 0
-105 -39 -51 0
-105 -41 -51 0
-106 2 4 6 10 12 16 18 22 24 28 32 34 40 42 52 0
-106 -2 -4 0
-106 -2 -6 0
-106 -2 -10 0
-106 -2 -12 0
-106 -2 -16 0
-106 -2 -18 0
-106 -2 -22 0
-106 -2 -24 0
-106 -2 -28 0
-106 -2 -32 0
-106 -2 -34 0
-106 -2 -40 0
-106 -2 -42 0
-106 -2 -52 0
-106 -4 -6 0
-106 -4 -10 0
-106 -4 -12 0
-106 -4 -16 0
-106 -4 -18 0
-106 -4 -22 0
-106 -4 -24 0
-106 -4 -28 0
-106 -4 -32 0
-106 -4 -34 0
-106 -4 -40 0
-106 -4 -42 0
-106 -4 -52 0
-106 -6 -10 0
-106 -6 -12 0
-106 -6 -16 0
-106 -6 -18 0
-106 -6 -22 0
-106 -6 -24 0
-106 -6 -28 0
-106 -6 -32 0
-106 -6 -34 0
-106 -6 -40 0
-106 -6 -42 0
-106 -6 -52 0
-106 -10 -12 0
-106 -10 -16 0
-106 -10 -18 0
-106 -10 -22 0
-106 -10 -24 0
-106 -10 -28 0
-106 -10 -32 0
-106 -10 -34 0
-106 -10 -40 0
-106 -10 -42 0
-106 -10 -52 0
-106 -12 -16 0
-106 -12 -18 0
-106 -12 -22 0
-106 -12 -24 0
-106 -12 -28 0
-106 -12 -32 0
-106 -12 -34 0
-106 -12 -40 0
-106 -12 -42 0
-106 -12 -52 0
-106 -16 -18 0
-106 -16 -22 0
-106 -16 -24 0
-106 -16 -28 0
-106 -16 -32 0
-106 -16 -34 0
-106 -16 -40 0
-106 -16 -42 0
-106 -16 -52 0
-106 -18 -22 0
-106 -18 -24 0
-106 -18 -28 0
-106 -18 -32 0
-106 -18 -34 0
-106 -18 -40 0
-106 -18 -42 0
-106 -18 -52 0
-106 -22 -24 0
-106 -22 -28 0
-106 -22 -32 0
-106 -22 -34 0
-106 -22 -40 0
-106 -22 -42 0
-106 -22 -52 0
-106 -24 -28 0
-106 -24 -32 0
-106 -24 -34 0
-106 -24 -40 0
-106 -24 -42 0
-106 -24 -52 0
-106 -28 -32 0
-106 -28 -34 0
-106 -28 -40 0
-106 -28 -42 0
-106 -28 -52 0
-106 -32 -34 0
-106 -32 -40 0
-106 -32 -42 0
-106 -32 -52 0
-106 -34 -40 0
-106 -34 -42 0
-106 -34 -52 0
-106 -40 -42 0
-106 -40 -52 0
-106 -42 -52 0
-51 -52 0
107 108 0
-107 1 3 5 7 13 15 17 19 25 27 29 35 37 43 49 0
-107 -1 -3 0
-107 -1 -5 0
-107 -1 -7 0
-107 -1 -13 0
-107 -1 -15 0
-107 -1 -17 0
-107 -1 -19 0
-107 -1 -25 0
-107 -1 -27 0
-107 -1 -29 0
-107 -1 -35 0
-107 -1 -37 0
-107 -1 -43 0
-107 -1 -49 0
-107 -3 -5 0
-107 -3 -7 0
-107 -3 -13 0
-107 -3 -15 0
-107 -3 -17 0
-107 -3 -19 0
-107 -3 -25 0
-107 -3 -27 0
-107 -3 -29 0
-107 -3 -35 0
-107 -3 -37 0
-107 -3 -43 0
-107 -3 -49 0
-107 -5 -7 0
-107 -5 -13 0
-107 -5 -15 0
-107 -5 -17 0
-107 -5 -19 0
-107 -5 -25 0
-107 -5 -27 0
-107 -5 -29 0
-107 -5 -35 0
-107 -5 -37 0
-107 -5 -43 0
-107 -5 -49 0
-107 -7 -13 0
-107 -7 -15 0
-107 -7 -17 0
-107 -7 -19 0
-107 -7 -25 0
-107 -7 -27 0
-107 -7 -29 0
-107 -7 -35 0
-107 -7 -37 0
-107 -7 -43 0
-107 -7 -49 0
-107 -13 -15 0
-107 -13 -17 0
-107 -13 -19 0
-107 -13 -25 0
-107 -13 -27 0
-107 -13 -29 0
-107 -13 -35 0
-107 -13 -37 0
-107 -13 -43 0
-107 -13 -49 0
-107 -15 -17 0
-107 -15 -19 0
-107 -15 -25 0
-107 -15 -27 0
-107 -15 -29 0
-107 -15 -35 0
-107 -15 -37 0
-107 -15 -43 0
-107 -15 -49 0
-107 -17 -19 0
-107 -17 -25 0
-107 -17 -27 0
-107 -17 -29 0
-107 -17 -35 0
-107 -17 -37 0
-107 -17 -43 0
-107 -17 -49 0
-107 -19 -25 0
-107 -19 -27 0
-107 -19 -29 0
-107 -19 -35 0
-107 -19 -37 0
-107 -19 -43 0
-107 -19 -49 0
-107 -25 -27 0
-107 -25 -29 0
-107 -25 -35 0
-107 -25 -37 0
-107 -25 -43 0
-107 -25 -49 0
-107 -27 -29 0
-107 -27 -35 0
-107 -27 -37 0
-107 -27 -43 0
-107 -27 -49 0
-107 -29 -35 0
-107 -29 -37 0
-107 -29 -43 0
-107 -29 -49 0
-107 -35 -37 0
-107 -35 -43 0
-107 -35 -49 0
-107 -37 -43 0
-107 -37 -49 0
-107 -43 -49 0
-108 2 4 6 8 14 16 18 20 26 28 30 36 38 44 50 0
-108 -2 -4 0
-108 -2 -6 0
-108 -2 -8 0
-108 -2 -14 0
-108 -2 -16 0
-108 -2 -18 0
-108 -2 -20 0
-108 -2 -26 0
-108 -2 -28 0
-108 -2 -30 0
-108 -2 -36 0
-108 -2 -38 0
-108 -2 -44 0
-108 -2 -50 0
-108 -4 -6 0
-108 -4 -8 0
-108 -4 -14 0
-108 -4 -16 0
-108 -4 -18 0
-108 -4 -20 0
-108 -4 -26 0
-108 -4 -28 0
-108 -4 -30 0
-108 -4 -36 0
-108 -4 -38 0
-108 -4 -44 0
-108 -4 -50 0
-108 -6 -8 0
-108 -6 -14 0
-108 -6 -16 0
-108 -6 -18 0
-108 -6 -20 0
-108 -6 -26 0
-108 -6 -28 0
-108 -6 -30 0
-108 -6 -36 0
-108 -6 -38 0
-108 -6 -44 0
-108 -6 -50 0
-108 -8 -14 0
-108 -8 -16 0
-108 -8 -18 0
-108 -8 -20 0
-108 -8 -26 0
-108 -8 -28 0
-108 -8 -30 0
-108 -8 -36 0
-108 -8 -38 0
-108 -8 -44 0
-108 -8 -50 0
-108 -14 -16 0
-108 -14 -18 0
-108 -14 -20 0
-108 -14 -26 0
-108 -14 -28 0
-108 -14 -30 0
-108 -14 -36 0
-108 -14 -38 0
-108 -14 -44 0
-108 -14 -50 0
-108 -16 -18 0
-108 -16 -20 0
-108 -16 -26 0
-108 -16 -28 0
-108 -16 -30 0
-108 -16 -36 0
-108 -16 -38 0
-108 -16 -44 0
-108 -16 -50 0
-108 -18 -20 0
-108 -18 -26 0
-108 -18 -28 0
-108 -18 -30 0
-108 -18 -36 0
-108 -18 -38 0
-108 -18 -44 0
-108 -18 -50 0
-108 -20 -26 0
-108 -20 -28 0
-108 -20 -30 0
-108 -20 -36 0
-108 -20 -38 0
-108 -20 -44 0
-108 -20 -50 0
-108 -26 -28 0
-108 -26 -30 0
-108 -26 -36 0
-108 -26 -38 0
-108 -26 -44 0
-108 -26 -50 0
-108 -28 -30 0
-108 -28 -36 0
-108 -28 -38 0
-108 -28 -44 0
-108 -28 -50 0
-108 -30 -36 0
-108 -30 -38 0
-108 -30 -44 0
-108 -30 -50 0
-108 -36 -38 0
-108 -36 -44 0
-108 -36 -50 0
-108 -38 -44 0
-108 -38 -50 0
-108 -44 -50 0
-53 -54 0
109 110 0
-109 1 3 5 7 11 15 17 19 23 27 29 33 37 41 47 0
-109 -1 -3 0
-109 -1 -5 0
-109 -1 -7 0
-109 -1 -11 0
-109 -1 -15 0
-109 -1 -17 0
-109 -1 -19 0
-109 -1 -23 0
-109 -1 -27 0
-109 -1 -29 0
-109 -1 -33 0
-109 -1 -37 0
-109 -1 -41 0
-109 -1 -47 0
-109 -3 -5 0
-109 -3 -7 0
-109 -3 -11 0
-109 -3 -15 0
-109 -3 -17 0
-109 -3 -19 0
-109 -3 -23 0
-109 -3 -27 0
-109 -3 -29 0
-109 -3 -33 0
-109 -3 -37 0
-109 -3 -41 0
-109 -3 -47 0
-109 -5 -7 0
-109 -5 -11 0
-109 -5 -15 0
-109 -5 -17 0
-109 -5 -19 0
-109 -5 -23 0
-109 -5 -27 0
-109 -5 -29 0
-109 -5 -33 0
-109 -5 -37 0
-109 -5 -41 0
-109 -5 -47 0
-109 -7 -11 0
-109 -7 -15 0
-109 -7 -17 0
-109 -7 -19 0
-109 -7 -23 0
-109 -7 -27 0
-109 -7 -29 0
-109 -7 -33 0
-109 -7 -37 0
-109 -7 -41 0
-109 -7 -47 0
-109 -11 -15 0
-109 -11 -17 0
-109 -11 -19 0
-109 -11 -23 0
-109 -11 -27 0
-109 -11 -29 0
-109 -11 -33 0
-109 -11 -37 0
-109 -11 -41 0
-109 -11 -47 0
-109 -15 -17 0
-109 -15 -19 0
-109 -15 -23 0
-109 -15 -27 0
-109 -15 -29 0
-109 -15 -33 0
-109 -15 -37 0
-109 -15 -41 0
-109 -15 -47 0
-109 -17 -19 0
-109 -17 -23 0
-109 -17 -27 0
-109 -17 -29 0
-109 -17 -33 0
-109 -17 -37 0
-109 -17 -41 0
-109 -17 -47 0
-109 -19 -23 0
-109 -19 -27 0
-109 -19 -29 0
-109 -19 -33 0
-109 -19 -37 0
-109 -19 -41 0
-109 -19 -47 0
-109 -23 -27 0
-109 -23 -29 0
-109 -23 -33 0
-109 -23 -37 0
-109 -23 -41 0
-109 -23 -47 0
-109 -27 -29 0
-109 -27 -33 0
-109 -27 -37 0
-109 -27 -41 0
-109 -27 -47 0
-109 -29 -33 0
-109 -29 -37 0
-109 -29 -41 0
-109 -29 -47 0
-109 -33 -37 0
-109 -33 -41 0
-109 -33 -47 0
-109 -37 -41 0
-109 -37 -47 0
-109 -41 -47 0
-110 2 4 6 8 12 16 18 20 24 28 30 34 38 42 48 0
-110 -2 -4 0
-110 -2 -6 0
-110 -2 -8 0
-110 -2 -12 0
-110 -2 -16 0
-110 -2 -18 0
-110 -2 -20 0
-110 -2 -24 0
-110 -2 -28 0
-110 -2 -30 0
-110 -2 -34 0
-110 -2 -38 0
-110 -2 -42 0
-110 -2 -48 0
-110 -4 -6 0
-110 -4 -8 0
-110 -4 -12 0
-110 -4 -16 0
-110 -4 -18 0
-110 -4 -20 0
-110 -4 -24 0
-110 -4 -28 0
-110 -4 -30 0
-110 -4 -34 0
-110 -4 -38 0
-110 -4 -42 0
-110 -4 -48 0
-110 -6 -8 0
-110 -6 -12 0
-110 -6 -16 0
-110 -6 -18 0
-110 -6 -20 0
-110 -6 -24 0
-110 -6 -28 0
-110 -6 -30 0
-110 -6 -34 0
-110 -6 -38 0
-110 -6 -42 0
-110 -6 -48 0
-110 -8 -12 0
-110 -8 -16 0
-110 -8 -18 0
-110 -8 -20 0
-110 -8 -24 0
-110 -8 -28 0
-110 -8 -30 0
-110 -8 -34 0
-110 -8 -38 0
-110 -8 -42 0
-110 -8 -48 0
-110 -12 -16 0
-110 -12 -18 0
-110 -12 -20 0
-110 -12 -24 0
-110 -12 -28 0
-110 -12 -30 0
-110 -12 -34 0
-110 -12 -38 0
-110 -12 -42 0
-110 -12 -48 0
-110 -16 -18 0
-110 -16 -20 0
-110 -16 -24 0
-110 -16 -28 0
-110 -16 -30 0
-110 -16 -34 0
-110 -16 -38 0
-110 -16 -42 0
-110 -16 -48 0
-110 -18 -20 0
-110 -18 -24 0
-110 -18 -28 0
-110 -18 -30 0
-110 -18 -34 0
-110 -18 -38 0
-110 -18 -42 0
-110 -18 -48 0
-110 -20 -24 0
-110 -20 -28 0
-110 -20 -30 0
-110 -20 -34 0
-110 -20 -38 0
-110 -20 -42 0
-110 -20 -48 0
-110 -24 -28 0
-110 -24 -30 0
-110 -24 -34 0
-110 -24 -38 0
-110 -24 -42 0
-110 -24 -48 0
-110 -28 -30 0
-110 -28 -34 0
-110 -28 -38 0
-110 -28 -42 0
-110 -28 -48 0
-110 -30 -34 0
-110 -30 -38 0
-110 -30 -42 0
-110 -30 -48 0
-110 -34 -38 0
-110 -34 -42 0
-110 -34 -48 0
-110 -38 -42 0
-110 -38 -48 0
-110 -42 -48 0
-55 -56 0
111 112 0
-111 1 3 5 7 9 15 17 19 21 27 29 31 37 39 45 0
-111 -1 -3 0
-111 -1 -5 0
-111 -1 -7 0
-111 -1 -9 0
-111 -1 -15 0
-111 -1 -17 0
-111 -1 -19 0
-111 -1 -21 0
-111 -1 -27 0
-111 -1 -29 0
-111 -1 -31 0
-111 -1 -37 0
-111 -1 -39 0
-111 -1 -45 0
-111 -3 -5 0
-111 -3 -7 0
-111 -3 -9 0
-111 -3 -15 0
-111 -3 -17 0
-111 -3 -19 0
-111 -3 -21 0
-111 -3 -27 0
-111 -3 -29 0
-111 -3 -31 0
-111 -3 -37 0
-111 -3 -39 0
-111 -3 -45 0
-111 -5 -7 0
-111 -5 -9 0
-111 -5 -15 0
-111 -5 -17 0
-111 -5 -19 0
-111 -5 -21 0
-111 -5 -27 0
-111 -5 -29 0
-111 -5 -31 0
-111 -5 -37 0
-111 -5 -39 0
-111 -5 -45 0
-111 -7 -9 0
-111 -7 -15 0
-111 -7 -17 0
-111 -7 -19 0
-111 -7 -21 0
-111 -7 -27 0
-111 -7 -29 0
-111 -7 -31 0
-111 -7 -37 0
-111 -7 -39 0
-111 -7 -45 0
-111 -9 -15 0
-111 -9 -17 0
-111 -9 -19 0
-111 -9 -21 0
-111 -9 -27 0
-111 -9 -29 0
-111 -9 -31 0
-111 -9 -37 0
-111 -9 -39 0
-111 -9 -45 0
-111 -15 -17 0
-111 -15 -19 0
-111 -15 -21 0
-111 -15 -27 0
-111 -15 -29 0
-111 -15 -31 0
-111 -15 -37 0
-111 -15 -39 0
-111 -15 -45 0
-111 -17 -19 0
-111 -17 -21 0
-111 -17 -27 0
-111 -17 -29 0
-111 -17 -31 0
-111 -17 -37 0
-111 -17 -39 0
-111 -17 -45 0
-111 -19 -21 0
-111 -19 -27 0
-111 -19 -29 0
-111 -19 -31 0
-111 -19 -37 0
-111 -19 -39 0
-111 -19 -45 0
-111 -21 -27 0
-111 -21 -29 0
-111 -21 -31 0
-111 -21 -37 0
-111 -21 -39 0
-111 -21 -45 0
-111 -27 -29 0
-111 -27 -31 0
-111 -27 -37 0
-111 -27 -39 0
-111 -27 -45 0
-111 -29 -31 0
-111 -29 -37 0
-111 -29 -39 0
-111 -29 -45 0
-111 -31 -37 0
-111 -31 -39 0
-111 -31 -45 0
-111 -37 -39 0
-111 -37 -45 0
-111 -39 -45 0
-112 2 4 6 8 10 16 18 20 22 28 30 32 38 40 46 0
-112 -2 -4 0
-112 -2 -6 0
-112 -2 -8 0
-112 -2 -10 0
-112 -2 -16 0
-112 -2 -18 0
-112 -2 -20 0
-112 -2 -22 0
-112 -2 -28 0
-112 -2 -30 0
-112 -2 -32 0
-112 -2 -38 0
-112 -2 -40 0
-112 -2 -46 0
-112 -4 -6 0
-112 -4 -8 0
-112 -4 -10 0
-112 -4 -16 0
-112 -4 -18 0
-112 -4 -20 0
-112 -4 -22 0
-112 -4 -28 0
-112 -4 -30 0
-112 -4 -32 0
-112 -4 -38 0
-112 -4 -40 0
-112 -4 -46 0
-112 -6 -8 0
-112 -6 -10 0
-112 -6 -16 0
-112 -6 -18 0
-112 -6 -20 0
-112 -6 -22 0
-112 -6 -28 0
-112 -6 -30 0
-112 -6 -32 0
-112 -6 -38 0
-112 -6 -40 0
-112 -6 -46 0
-112 -8 -10 0
-112 -8 -16 0
-112 -8 -18 0
-112 -8 -20 0
-112 -8 -22 0
-112 -8 -28 0
-112 -8 -30 0
-112 -8 -32 0
-112 -8 -38 0
-112 -8 -40 0
-112 -8 -46 0
-112 -10 -16 0
-112 -10 -18 0
-112 -10 -20 0
-112 -10 -22 0
-112 -10 -28 0
-112 -10 -30 0
-112 -10 -32 0
-112 -10 -38 0
-112 -10 -40 0
-112 -10 -46 0
-112 -16 -18 0
-112 -16 -20 0
-112 -16 -22 0
-112 -16 -28 0
-112 -16 -30 0
-112 -16 -32 0
-112 -16 -38 0
-112 -16 -40 0
-112 -16 -46 0
-112 -18 -20 0
-112 -18 -22 0
-112 -18 -28 0
-112 -18 -30 0
-112 -18 -32 0
-112 -18 -38 0
-112 -18 -40 0
-112 -18 -46 0
-112 -20 -22 0
-112 -20 -28 0
-112 -20 -30 0
-112 -20 -32 0
-112 -20 -38 0
-112 -20 -40 0
-112 -20 -46 0
-112 -22 -28 0
-112 -22 -30 0
-112 -22 -32 0
-112 -22 -38 0
-112 -22 -40 0
-112 -22 -46 0
-112 -28 -30 0
-112 -28 -32 0
-112 -28 -38 0
-112 -28 -40 0
-112 -28 -46 0
-112 -30 -32 0
-112 -30 -38 0
-112 -30 -40 0
-112 -30 -46 0
-112 -32 -38 0
-112 -32 -40 0
-112 -32 -46 0
-112 -38 -40 0
-112 -38 -46 0
-112 -40 -46 0
