c CFON* coloring of the Kneser graph K(8,3) with 1 color(s)
c vertices: the 3-subsets of 1..8 in lexicographic order, numbered from 0
c x(v,c) = variable v*1 + c                 'vertex v has color c'
c u(v,c) = variable 56 + v*1 + c       'v sees color c exactly once'
p cnf 112 2632
57 0
-57 47 48 49 50 51 52 53 54 55 56 0
-57 -47 -48 0
-57 -47 -49 0
-57 -47 -50 0
-57 -47 -51 0
-57 -47 -52 0
-57 -47 -53 0
-57 -47 -54 0
-57 -47 -55 0
-57 -47 -56 0
-57 -48 -49 0
-57 -48 -50 0
-57 -48 -51 0
-57 -48 -52 0
-57 -48 -53 0
-57 -48 -54 0
-57 -48 -55 0
-57 -48 -56 0
-57 -49 -50 0
-57 -49 -51 0
-57 -49 -52 0
-57 -49 -53 0
-57 -49 -54 0
-57 -49 -55 0
-57 -49 -56 0
-57 -50 -51 0
-57 -50 -52 0
-57 -50 -53 0
-57 -50 -54 0
-57 -50 -55 0
-57 -50 -56 0
-57 -51 -52 0
-57 -51 -53 0
-57 -51 -54 0
-57 -51 -55 0
-57 -51 -56 0
-57 -52 -53 0
-57 -52 -54 0
-57 -52 -55 0
-57 -52 -56 0
-57 -53 -54 0
-57 -53 -55 0
-57 -53 -56 0
-57 -54 -55 0
-57 -54 -56 0
-57 -55 -56 0
58 0
-58 41 42 43 44 45 46 53 54 55 56 0
-58 -41 -42 0
-58 -41 -43 0
-58 -41 -44 0
-58 -41 -45 0
-58 -41 -46 0
-58 -41 -53 0
-58 -41 -54 0
-58 -41 -55 0
-58 -41 -56 0
-58 -42 -43 0
-58 -42 -44 0
-58 -42 -45 0
-58 -42 -46 0
-58 -42 -53 0
-58 -42 -54 0
-58 -42 -55 0
-58 -42 -56 0
-58 -43 -44 0
-58 -43 -45 0
-58 -43 -46 0
-58 -43 -53 0
-58 -43 -54 0
-58 -43 -55 0
-58 -43 -56 0
-58 -44 -45 0
-58 -44 -46 0
-58 -44 -53 0
-58 -44 -54 0
-58 -44 -55 0
-58 -44 -56 0
-58 -45 -46 0
-58 -45 -53 0
-58 -45 -54 0
-58 -45 -55 0
-58 -45 -56 0
-58 -46 -53 0
-58 -46 -54 0
-58 -46 -55 0
-58 -46 -56 0
-58 -53 -54 0
-58 -53 -55 0
-58 -53 -56 0
-58 -54 -55 0
-58 -54 -56 0
-58 -55 -56 0
59 0
-59 38 39 40 44 45 46 50 51 52 56 0
-59 -38 -39 0
-59 -38 -40 0
-59 -38 -44 0
-59 -38 -45 0
-59 -38 -46 0
-59 -38 -50 0
-59 -38 -51 0
-59 -38 -52 0
-59 -38 -56 0
-59 -39 -40 0
-59 -39 -44 0
-59 -39 -45 0
-59 -39 -46 0
-59 -39 -50 0
-59 -39 -51 0
-59 -39 -52 0
-59 -39 -56 0
-59 -40 -44 0
-59 -40 -45 0
-59 -40 -46 0
-59 -40 -50 0
-59 -40 -51 0
-59 -40 -52 0
-59 -40 -56 0
-59 -44 -45 0
-59 -44 -46 0
-59 -44 -50 0
-59 -44 -51 0
-59 -44 -52 0
-59 -44 -56 0
-59 -45 -46 0
-59 -45 -50 0
-59 -45 -51 0
-59 -45 -52 0
-59 -45 -56 0
-59 -46 -50 0
-59 -46 -51 0
-59 -46 -52 0
-59 -46 -56 0
-59 -50 -51 0
-59 -50 -52 0
-59 -50 -56 0
-59 -51 -52 0
-59 -51 -56 0
-59 -52 -56 0
60 0
-60 37 39 40 42 43 46 48 49 52 55 0
-60 -37 -39 0
-60 -37 -40 0
-60 -37 -42 0
-60 -37 -43 0
-60 -37 -46 0
-60 -37 -48 0
-60 -37 -49 0
-60 -37 -52 0
-60 -37 -55 0
-60 -39 -40 0
-60 -39 -42 0
-60 -39 -43 0
-60 -39 -46 0
-60 -39 -48 0
-60 -39 -49 0
-60 -39 -52 0
-60 -39 -55 0
-60 -40 -42 0
-60 -40 -43 0
-60 -40 -46 0
-60 -40 -48 0
-60 -40 -49 0
-60 -40 -52 0
-60 -40 -55 0
-60 -42 -43 0
-60 -42 -46 0
-60 -42 -48 0
-60 -42 -49 0
-60 -42 -52 0
-60 -42 -55 0
-60 -43 -46 0
-60 -43 -48 0
-60 -43 -49 0
-60 -43 -52 0
-60 -43 -55 0
-60 -46 -48 0
-60 -46 -49 0
-60 -46 -52 0
-60 -46 -55 0
-60 -48 -49 0
-60 -48 -52 0
-60 -48 -55 0
-60 -49 -52 0
-60 -49 -55 0
-60 -52 -55 0
61 0
-61 37 38 40 41 43 45 47 49 51 54 0
-61 -37 -38 0
-61 -37 -40 0
-61 -37 -41 0
-61 -37 -43 0
-61 -37 -45 0
-61 -37 -47 0
-61 -37 -49 0
-61 -37 -51 0
-61 -37 -54 0
-61 -38 -40 0
-61 -38 -41 0
-61 -38 -43 0
-61 -38 -45 0
-61 -38 -47 0
-61 -38 -49 0
-61 -38 -51 0
-61 -38 -54 0
-61 -40 -41 0
-61 -40 -43 0
-61 -40 -45 0
-61 -40 -47 0
-61 -40 -49 0
-61 -40 -51 0
-61 -40 -54 0
-61 -41 -43 0
-61 -41 -45 0
-61 -41 -47 0
-61 -41 -49 0
-61 -41 -51 0
-61 -41 -54 0
-61 -43 -45 0
-61 -43 -47 0
-61 -43 -49 0
-61 -43 -51 0
-61 -43 -54 0
-61 -45 -47 0
-61 -45 -49 0
-61 -45 -51 0
-61 -45 -54 0
-61 -47 -49 0
-61 -47 -51 0
-61 -47 -54 0
-61 -49 -51 0
-61 -49 -54 0
-61 -51 -54 0
62 0
-62 37 38 39 41 42 44 47 48 50 53 0
-62 -37 -38 0
-62 -37 -39 0
-62 -37 -41 0
-62 -37 -42 0
-62 -37 -44 0
-62 -37 -47 0
-62 -37 -48 0
-62 -37 -50 0
-62 -37 -53 0
-62 -38 -39 0
-62 -38 -41 0
-62 -38 -42 0
-62 -38 -44 0
-62 -38 -47 0
-62 -38 -48 0
-62 -38 -50 0
-62 -38 -53 0
-62 -39 -41 0
-62 -39 -42 0
-62 -39 -44 0
-62 -39 -47 0
-62 -39 -48 0
-62 -39 -50 0
-62 -39 -53 0
-62 -41 -42 0
-62 -41 -44 0
-62 -41 -47 0
-62 -41 -48 0
-62 -41 -50 0
-62 -41 -53 0
-62 -42 -44 0
-62 -42 -47 0
-62 -42 -48 0
-62 -42 -50 0
-62 -42 -53 0
-62 -44 -47 0
-62 -44 -48 0
-62 -44 -50 0
-62 -44 -53 0
-62 -47 -48 0
-62 -47 -50 0
-62 -47 -53 0
-62 -48 -50 0
-62 -48 -53 0
-62 -50 -53 0
63 0
-63 31 32 33 34 35 36 53 54 55 56 0
-63 -31 -32 0
-63 -31 -33 0
-63 -31 -34 0
-63 -31 -35 0
-63 -31 -36 0
-63 -31 -53 0
-63 -31 -54 0
-63 -31 -55 0
-63 -31 -56 0
-63 -32 -33 0
-63 -32 -34 0
-63 -32 -35 0
-63 -32 -36 0
-63 -32 -53 0
-63 -32 -54 0
-63 -32 -55 0
-63 -32 -56 0
-63 -33 -34 0
-63 -33 -35 0
-63 -33 -36 0
-63 -33 -53 0
-63 -33 -54 0
-63 -33 -55 0
-63 -33 -56 0
-63 -34 -35 0
-63 -34 -36 0
-63 -34 -53 0
-63 -34 -54 0
-63 -34 -55 0
-63 -34 -56 0
-63 -35 -36 0
-63 -35 -53 0
-63 -35 -54 0
-63 -35 -55 0
-63 -35 -56 0
-63 -36 -53 0
-63 -36 -54 0
-63 -36 -55 0
-63 -36 -56 0
-63 -53 -54 0
-63 -53 -55 0
-63 -53 -56 0
-63 -54 -55 0
-63 -54 -56 0
-63 -55 -56 0
64 0
-64 28 29 30 34 35 36 50 51 52 56 0
-64 -28 -29 0
-64 -28 -30 0
-64 -28 -34 0
-64 -28 -35 0
-64 -28 -36 0
-64 -28 -50 0
-64 -28 -51 0
-64 -28 -52 0
-64 -28 -56 0
-64 -29 -30 0
-64 -29 -34 0
-64 -29 -35 0
-64 -29 -36 0
-64 -29 -50 0
-64 -29 -51 0
-64 -29 -52 0
-64 -29 -56 0
-64 -30 -34 0
-64 -30 -35 0
-64 -30 -36 0
-64 -30 -50 0
-64 -30 -51 0
-64 -30 -52 0
-64 -30 -56 0
-64 -34 -35 0
-64 -34 -36 0
-64 -34 -50 0
-64 -34 -51 0
-64 -34 -52 0
-64 -34 -56 0
-64 -35 -36 0
-64 -35 -50 0
-64 -35 -51 0
-64 -35 -52 0
-64 -35 -56 0
-64 -36 -50 0
-64 -36 -51 0
-64 -36 -52 0
-64 -36 -56 0
-64 -50 -51 0
-64 -50 -52 0
-64 -50 -56 0
-64 -51 -52 0
-64 -51 -56 0
-64 -52 -56 0
65 0
-65 27 29 30 32 33 36 48 49 52 55 0
-65 -27 -29 0
-65 -27 -30 0
-65 -27 -32 0
-65 -27 -33 0
-65 -27 -36 0
-65 -27 -48 0
-65 -27 -49 0
-65 -27 -52 0
-65 -27 -55 0
-65 -29 -30 0
-65 -29 -32 0
-65 -29 -33 0
-65 -29 -36 0
-65 -29 -48 0
-65 -29 -49 0
-65 -29 -52 0
-65 -29 -55 0
-65 -30 -32 0
-65 -30 -33 0
-65 -30 -36 0
-65 -30 -48 0
-65 -30 -49 0
-65 -30 -52 0
-65 -30 -55 0
-65 -32 -33 0
-65 -32 -36 0
-65 -32 -48 0
-65 -32 -49 0
-65 -32 -52 0
-65 -32 -55 0
-65 -33 -36 0
-65 -33 -48 0
-65 -33 -49 0
-65 -33 -52 0
-65 -33 -55 0
-65 -36 -48 0
-65 -36 -49 0
-65 -36 -52 0
-65 -36 -55 0
-65 -48 -49 0
-65 -48 -52 0
-65 -48 -55 0
-65 -49 -52 0
-65 -49 -55 0
-65 -52 -55 0
66 0
-66 27 28 30 31 33 35 47 49 51 54 0
-66 -27 -28 0
-66 -27 -30 0
-66 -27 -31 0
-66 -27 -33 0
-66 -27 -35 0
-66 -27 -47 0
-66 -27 -49 0
-66 -27 -51 0
-66 -27 -54 0
-66 -28 -30 0
-66 -28 -31 0
-66 -28 -33 0
-66 -28 -35 0
-66 -28 -47 0
-66 -28 -49 0
-66 -28 -51 0
-66 -28 -54 0
-66 -30 -31 0
-66 -30 -33 0
-66 -30 -35 0
-66 -30 -47 0
-66 -30 -49 0
-66 -30 -51 0
-66 -30 -54 0
-66 -31 -33 0
-66 -31 -35 0
-66 -31 -47 0
-66 -31 -49 0
-66 -31 -51 0
-66 -31 -54 0
-66 -33 -35 0
-66 -33 -47 0
-66 -33 -49 0
-66 -33 -51 0
-66 -33 -54 0
-66 -35 -47 0
-66 -35 -49 0
-66 -35 -51 0
-66 -35 -54 0
-66 -47 -49 0
-66 -47 -51 0
-66 -47 -54 0
-66 -49 -51 0
-66 -49 -54 0
-66 -51 -54 0
67 0
-67 27 28 29 31 32 34 47 48 50 53 0
-67 -27 -28 0
-67 -27 -29 0
-67 -27 -31 0
-67 -27 -32 0
-67 -27 -34 0
-67 -27 -47 0
-67 -27 -48 0
-67 -27 -50 0
-67 -27 -53 0
-67 -28 -29 0
-67 -28 -31 0
-67 -28 -32 0
-67 -28 -34 0
-67 -28 -47 0
-67 -28 -48 0
-67 -28 -50 0
-67 -28 -53 0
-67 -29 -31 0
-67 -29 -32 0
-67 -29 -34 0
-67 -29 -47 0
-67 -29 -48 0
-67 -29 -50 0
-67 -29 -53 0
-67 -31 -32 0
-67 -31 -34 0
-67 -31 -47 0
-67 -31 -48 0
-67 -31 -50 0
-67 -31 -53 0
-67 -32 -34 0
-67 -32 -47 0
-67 -32 -48 0
-67 -32 -50 0
-67 -32 -53 0
-67 -34 -47 0
-67 -34 -48 0
-67 -34 -50 0
-67 -34 -53 0
-67 -47 -48 0
-67 -47 -50 0
-67 -47 -53 0
-67 -48 -50 0
-67 -48 -53 0
-67 -50 -53 0
68 0
-68 24 25 26 34 35 36 44 45 46 56 0
-68 -24 -25 0
-68 -24 -26 0
-68 -24 -34 0
-68 -24 -35 0
-68 -24 -36 0
-68 -24 -44 0
-68 -24 -45 0
-68 -24 -46 0
-68 -24 -56 0
-68 -25 -26 0
-68 -25 -34 0
-68 -25 -35 0
-68 -25 -36 0
-68 -25 -44 0
-68 -25 -45 0
-68 -25 -46 0
-68 -25 -56 0
-68 -26 -34 0
-68 -26 -35 0
-68 -26 -36 0
-68 -26 -44 0
-68 -26 -45 0
-68 -26 -46 0
-68 -26 -56 0
-68 -34 -35 0
-68 -34 -36 0
-68 -34 -44 0
-68 -34 -45 0
-68 -34 -46 0
-68 -34 -56 0
-68 -35 -36 0
-68 -35 -44 0
-68 -35 -45 0
-68 -35 -46 0
-68 -35 -56 0
-68 -36 -44 0
-68 -36 -45 0
-68 -36 -46 0
-68 -36 -56 0
-68 -44 -45 0
-68 -44 -46 0
-68 -44 -56 0
-68 -45 -46 0
-68 -45 -56 0
-68 -46 -56 0
69 0
-69 23 25 26 32 33 36 42 43 46 55 0
-69 -23 -25 0
-69 -23 -26 0
-69 -23 -32 0
-69 -23 -33 0
-69 -23 -36 0
-69 -23 -42 0
-69 -23 -43 0
-69 -23 -46 0
-69 -23 -55 0
-69 -25 -26 0
-69 -25 -32 0
-69 -25 -33 0
-69 -25 -36 0
-69 -25 -42 0
-69 -25 -43 0
-69 -25 -46 0
-69 -25 -55 0
-69 -26 -32 0
-69 -26 -33 0
-69 -26 -36 0
-69 -26 -42 0
-69 -26 -43 0
-69 -26 -46 0
-69 -26 -55 0
-69 -32 -33 0
-69 -32 -36 0
-69 -32 -42 0
-69 -32 -43 0
-69 -32 -46 0
-69 -32 -55 0
-69 -33 -36 0
-69 -33 -42 0
-69 -33 -43 0
-69 -33 -46 0
-69 -33 -55 0
-69 -36 -42 0
-69 -36 -43 0
-69 -36 -46 0
-69 -36 -55 0
-69 -42 -43 0
-69 -42 -46 0
-69 -42 -55 0
-69 -43 -46 0
-69 -43 -55 0
-69 -46 -55 0
70 0
-70 23 24 26 31 33 35 41 43 45 54 0
-70 -23 -24 0
-70 -23 -26 0
-70 -23 -31 0
-70 -23 -33 0
-70 -23 -35 0
-70 -23 -41 0
-70 -23 -43 0
-70 -23 -45 0
-70 -23 -54 0
-70 -24 -26 0
-70 -24 -31 0
-70 -24 -33 0
-70 -24 -35 0
-70 -24 -41 0
-70 -24 -43 0
-70 -24 -45 0
-70 -24 -54 0
-70 -26 -31 0
-70 -26 -33 0
-70 -26 -35 0
-70 -26 -41 0
-70 -26 -43 0
-70 -26 -45 0
-70 -26 -54 0
-70 -31 -33 0
-70 -31 -35 0
-70 -31 -41 0
-70 -31 -43 0
-70 -31 -45 0
-70 -31 -54 0
-70 -33 -35 0
-70 -33 -41 0
-70 -33 -43 0
-70 -33 -45 0
-70 -33 -54 0
-70 -35 -41 0
-70 -35 -43 0
-70 -35 -45 0
-70 -35 -54 0
-70 -41 -43 0
-70 -41 -45 0
-70 -41 -54 0
-70 -43 -45 0
-70 -43 -54 0
-70 -45 -54 0
71 0
-71 23 24 25 31 32 34 41 42 44 53 0
-71 -23 -24 0
-71 -23 -25 0
-71 -23 -31 0
-71 -23 -32 0
-71 -23 -34 0
-71 -23 -41 0
-71 -23 -42 0
-71 -23 -44 0
-71 -23 -53 0
-71 -24 -25 0
-71 -24 -31 0
-71 -24 -32 0
-71 -24 -34 0
-71 -24 -41 0
-71 -24 -42 0
-71 -24 -44 0
-71 -24 -53 0
-71 -25 -31 0
-71 -25 -32 0
-71 -25 -34 0
-71 -25 -41 0
-71 -25 -42 0
-71 -25 -44 0
-71 -25 -53 0
-71 -31 -32 0
-71 -31 -34 0
-71 -31 -41 0
-71 -31 -42 0
-71 -31 -44 0
-71 -31 -53 0
-71 -32 -34 0
-71 -32 -41 0
-71 -32 -42 0
-71 -32 -44 0
-71 -32 -53 0
-71 -34 -41 0
-71 -34 -42 0
-71 -34 -44 0
-71 -34 -53 0
-71 -41 -42 0
-71 -41 -44 0
-71 -41 -53 0
-71 -42 -44 0
-71 -42 -53 0
-71 -44 -53 0
72 0
-72 22 25 26 29 30 36 39 40 46 52 0
-72 -22 -25 0
-72 -22 -26 0
-72 -22 -29 0
-72 -22 -30 0
-72 -22 -36 0
-72 -22 -39 0
-72 -22 -40 0
-72 -22 -46 0
-72 -22 -52 0
-72 -25 -26 0
-72 -25 -29 0
-72 -25 -30 0
-72 -25 -36 0
-72 -25 -39 0
-72 -25 -40 0
-72 -25 -46 0
-72 -25 -52 0
-72 -26 -29 0
-72 -26 -30 0
-72 -26 -36 0
-72 -26 -39 0
-72 -26 -40 0
-72 -26 -46 0
-72 -26 -52 0
-72 -29 -30 0
-72 -29 -36 0
-72 -29 -39 0
-72 -29 -40 0
-72 -29 -46 0
-72 -29 -52 0
-72 -30 -36 0
-72 -30 -39 0
-72 -30 -40 0
-72 -30 -46 0
-72 -30 -52 0
-72 -36 -39 0
-72 -36 -40 0
-72 -36 -46 0
-72 -36 -52 0
-72 -39 -40 0
-72 -39 -46 0
-72 -39 -52 0
-72 -40 -46 0
-72 -40 -52 0
-72 -46 -52 0
73 0
-73 22 24 26 28 30 35 38 40 45 51 0
-73 -22 -24 0
-73 -22 -26 0
-73 -22 -28 0
-73 -22 -30 0
-73 -22 -35 0
-73 -22 -38 0
-73 -22 -40 0
-73 -22 -45 0
-73 -22 -51 0
-73 -24 -26 0
-73 -24 -28 0
-73 -24 -30 0
-73 -24 -35 0
-73 -24 -38 0
-73 -24 -40 0
-73 -24 -45 0
-73 -24 -51 0
-73 -26 -28 0
-73 -26 -30 0
-73 -26 -35 0
-73 -26 -38 0
-73 -26 -40 0
-73 -26 -45 0
-73 -26 -51 0
-73 -28 -30 0
-73 -28 -35 0
-73 -28 -38 0
-73 -28 -40 0
-73 -28 -45 0
-73 -28 -51 0
-73 -30 -35 0
-73 -30 -38 0
-73 -30 -40 0
-73 -30 -45 0
-73 -30 -51 0
-73 -35 -38 0
-73 -35 -40 0
-73 -35 -45 0
-73 -35 -51 0
-73 -38 -40 0
-73 -38 -45 0
-73 -38 -51 0
-73 -40 -45 0
-73 -40 -51 0
-73 -45 -51 0
74 0
-74 22 24 25 28 29 34 38 39 44 50 0
-74 -22 -24 0
-74 -22 -25 0
-74 -22 -28 0
-74 -22 -29 0
-74 -22 -34 0
-74 -22 -38 0
-74 -22 -39 0
-74 -22 -44 0
-74 -22 -50 0
-74 -24 -25 0
-74 -24 -28 0
-74 -24 -29 0
-74 -24 -34 0
-74 -24 -38 0
-74 -24 -39 0
-74 -24 -44 0
-74 -24 -50 0
-74 -25 -28 0
-74 -25 -29 0
-74 -25 -34 0
-74 -25 -38 0
-74 -25 -39 0
-74 -25 -44 0
-74 -25 -50 0
-74 -28 -29 0
-74 -28 -34 0
-74 -28 -38 0
-74 -28 -39 0
-74 -28 -44 0
-74 -28 -50 0
-74 -29 -34 0
-74 -29 -38 0
-74 -29 -39 0
-74 -29 -44 0
-74 -29 -50 0
-74 -34 -38 0
-74 -34 -39 0
-74 -34 -44 0
-74 -34 -50 0
-74 -38 -39 0
-74 -38 -44 0
-74 -38 -50 0
-74 -39 -44 0
-74 -39 -50 0
-74 -44 -50 0
75 0
-75 22 23 26 27 30 33 37 40 43 49 0
-75 -22 -23 0
-75 -22 -26 0
-75 -22 -27 0
-75 -22 -30 0
-75 -22 -33 0
-75 -22 -37 0
-75 -22 -40 0
-75 -22 -43 0
-75 -22 -49 0
-75 -23 -26 0
-75 -23 -27 0
-75 -23 -30 0
-75 -23 -33 0
-75 -23 -37 0
-75 -23 -40 0
-75 -23 -43 0
-75 -23 -49 0
-75 -26 -27 0
-75 -26 -30 0
-75 -26 -33 0
-75 -26 -37 0
-75 -26 -40 0
-75 -26 -43 0
-75 -26 -49 0
-75 -27 -30 0
-75 -27 -33 0
-75 -27 -37 0
-75 -27 -40 0
-75 -27 -43 0
-75 -27 -49 0
-75 -30 -33 0
-75 -30 -37 0
-75 -30 -40 0
-75 -30 -43 0
-75 -30 -49 0
-75 -33 -37 0
-75 -33 -40 0
-75 -33 -43 0
-75 -33 -49 0
-75 -37 -40 0
-75 -37 -43 0
-75 -37 -49 0
-75 -40 -43 0
-75 -40 -49 0
-75 -43 -49 0
76 0
-76 22 23 25 27 29 32 37 39 42 48 0
-76 -22 -23 0
-76 -22 -25 0
-76 -22 -27 0
-76 -22 -29 0
-76 -22 -32 0
-76 -22 -37 0
-76 -22 -39 0
-76 -22 -42 0
-76 -22 -48 0
-76 -23 -25 0
-76 -23 -27 0
-76 -23 -29 0
-76 -23 -32 0
-76 -23 -37 0
-76 -23 -39 0
-76 -23 -42 0
-76 -23 -48 0
-76 -25 -27 0
-76 -25 -29 0
-76 -25 -32 0
-76 -25 -37 0
-76 -25 -39 0
-76 -25 -42 0
-76 -25 -48 0
-76 -27 -29 0
-76 -27 -32 0
-76 -27 -37 0
-76 -27 -39 0
-76 -27 -42 0
-76 -27 -48 0
-76 -29 -32 0
-76 -29 -37 0
-76 -29 -39 0
-76 -29 -42 0
-76 -29 -48 0
-76 -32 -37 0
-76 -32 -39 0
-76 -32 -42 0
-76 -32 -48 0
-76 -37 -39 0
-76 -37 -42 0
-76 -37 -48 0
-76 -39 -42 0
-76 -39 -48 0
-76 -42 -48 0
77 0
-77 22 23 24 27 28 31 37 38 41 47 0
-77 -22 -23 0
-77 -22 -24 0
-77 -22 -27 0
-77 -22 -28 0
-77 -22 -31 0
-77 -22 -37 0
-77 -22 -38 0
-77 -22 -41 0
-77 -22 -47 0
-77 -23 -24 0
-77 -23 -27 0
-77 -23 -28 0
-77 -23 -31 0
-77 -23 -37 0
-77 -23 -38 0
-77 -23 -41 0
-77 -23 -47 0
-77 -24 -27 0
-77 -24 -28 0
-77 -24 -31 0
-77 -24 -37 0
-77 -24 -38 0
-77 -24 -41 0
-77 -24 -47 0
-77 -27 -28 0
-77 -27 -31 0
-77 -27 -37 0
-77 -27 -38 0
-77 -27 -41 0
-77 -27 -47 0
-77 -28 -31 0
-77 -28 -37 0
-77 -28 -38 0
-77 -28 -41 0
-77 -28 -47 0
-77 -31 -37 0
-77 -31 -38 0
-77 -31 -41 0
-77 -31 -47 0
-77 -37 -38 0
-77 -37 -41 0
-77 -37 -47 0
-77 -38 -41 0
-77 -38 -47 0
-77 -41 -47 0
78 0
-78 16 17 18 19 20 21 53 54 55 56 0
-78 -16 -17 0
-78 -16 -18 0
-78 -16 -19 0
-78 -16 -20 0
-78 -16 -21 0
-78 -16 -53 0
-78 -16 -54 0
-78 -16 -55 0
-78 -16 -56 0
-78 -17 -18 0
-78 -17 -19 0
-78 -17 -20 0
-78 -17 -21 0
-78 -17 -53 0
-78 -17 -54 0
-78 -17 -55 0
-78 -17 -56 0
-78 -18 -19 0
-78 -18 -20 0
-78 -18 -21 0
-78 -18 -53 0
-78 -18 -54 0
-78 -18 -55 0
-78 -18 -56 0
-78 -19 -20 0
-78 -19 -21 0
-78 -19 -53 0
-78 -19 -54 0
-78 -19 -55 0
-78 -19 -56 0
-78 -20 -21 0
-78 -20 -53 0
-78 -20 -54 0
-78 -20 -55 0
-78 -20 -56 0
-78 -21 -53 0
-78 -21 -54 0
-78 -21 -55 0
-78 -21 -56 0
-78 -53 -54 0
-78 -53 -55 0
-78 -53 -56 0
-78 -54 -55 0
-78 -54 -56 0
-78 -55 -56 0
79 0
-79 13 14 15 19 20 21 50 51 52 56 0
-79 -13 -14 0
-79 -13 -15 0
-79 -13 -19 0
-79 -13 -20 0
-79 -13 -21 0
-79 -13 -50 0
-79 -13 -51 0
-79 -13 -52 0
-79 -13 -56 0
-79 -14 -15 0
-79 -14 -19 0
-79 -14 -20 0
-79 -14 -21 0
-79 -14 -50 0
-79 -14 -51 0
-79 -14 -52 0
-79 -14 -56 0
-79 -15 -19 0
-79 -15 -20 0
-79 -15 -21 0
-79 -15 -50 0
-79 -15 -51 0
-79 -15 -52 0
-79 -15 -56 0
-79 -19 -20 0
-79 -19 -21 0
-79 -19 -50 0
-79 -19 -51 0
-79 -19 -52 0
-79 -19 -56 0
-79 -20 -21 0
-79 -20 -50 0
-79 -20 -51 0
-79 -20 -52 0
-79 -20 -56 0
-79 -21 -50 0
-79 -21 -51 0
-79 -21 -52 0
-79 -21 -56 0
-79 -50 -51 0
-79 -50 -52 0
-79 -50 -56 0
-79 -51 -52 0
-79 -51 -56 0
-79 -52 -56 0
80 0
-80 12 14 15 17 18 21 48 49 52 55 0
-80 -12 -14 0
-80 -12 -15 0
-80 -12 -17 0
-80 -12 -18 0
-80 -12 -21 0
-80 -12 -48 0
-80 -12 -49 0
-80 -12 -52 0
-80 -12 -55 0
-80 -14 -15 0
-80 -14 -17 0
-80 -14 -18 0
-80 -14 -21 0
-80 -14 -48 0
-80 -14 -49 0
-80 -14 -52 0
-80 -14 -55 0
-80 -15 -17 0
-80 -15 -18 0
-80 -15 -21 0
-80 -15 -48 0
-80 -15 -49 0
-80 -15 -52 0
-80 -15 -55 0
-80 -17 -18 0
-80 -17 -21 0
-80 -17 -48 0
-80 -17 -49 0
-80 -17 -52 0
-80 -17 -55 0
-80 -18 -21 0
-80 -18 -48 0
-80 -18 -49 0
-80 -18 -52 0
-80 -18 -55 0
-80 -21 -48 0
-80 -21 -49 0
-80 -21 -52 0
-80 -21 -55 0
-80 -48 -49 0
-80 -48 -52 0
-80 -48 -55 0
-80 -49 -52 0
-80 -49 -55 0
-80 -52 -55 0
81 0
-81 12 13 15 16 18 20 47 49 51 54 0
-81 -12 -13 0
-81 -12 -15 0
-81 -12 -16 0
-81 -12 -18 0
-81 -12 -20 0
-81 -12 -47 0
-81 -12 -49 0
-81 -12 -51 0
-81 -12 -54 0
-81 -13 -15 0
-81 -13 -16 0
-81 -13 -18 0
-81 -13 -20 0
-81 -13 -47 0
-81 -13 -49 0
-81 -13 -51 0
-81 -13 -54 0
-81 -15 -16 0
-81 -15 -18 0
-81 -15 -20 0
-81 -15 -47 0
-81 -15 -49 0
-81 -15 -51 0
-81 -15 -54 0
-81 -16 -18 0
-81 -16 -20 0
-81 -16 -47 0
-81 -16 -49 0
-81 -16 -51 0
-81 -16 -54 0
-81 -18 -20 0
-81 -18 -47 0
-81 -18 -49 0
-81 -18 -51 0
-81 -18 -54 0
-81 -20 -47 0
-81 -20 -49 0
-81 -20 -51 0
-81 -20 -54 0
-81 -47 -49 0
-81 -47 -51 0
-81 -47 -54 0
-81 -49 -51 0
-81 -49 -54 0
-81 -51 -54 0
82 0
-82 12 13 14 16 17 19 47 48 50 53 0
-82 -12 -13 0
-82 -12 -14 0
-82 -12 -16 0
-82 -12 -17 0
-82 -12 -19 0
-82 -12 -47 0
-82 -12 -48 0
-82 -12 -50 0
-82 -12 -53 0
-82 -13 -14 0
-82 -13 -16 0
-82 -13 -17 0
-82 -13 -19 0
-82 -13 -47 0
-82 -13 -48 0
-82 -13 -50 0
-82 -13 -53 0
-82 -14 -16 0
-82 -14 -17 0
-82 -14 -19 0
-82 -14 -47 0
-82 -14 -48 0
-82 -14 -50 0
-82 -14 -53 0
-82 -16 -17 0
-82 -16 -19 0
-82 -16 -47 0
-82 -16 -48 0
-82 -16 -50 0
-82 -16 -53 0
-82 -17 -19 0
-82 -17 -47 0
-82 -17 -48 0
-82 -17 -50 0
-82 -17 -53 0
-82 -19 -47 0
-82 -19 -48 0
-82 -19 -50 0
-82 -19 -53 0
-82 -47 -48 0
-82 -47 -50 0
-82 -47 -53 0
-82 -48 -50 0
-82 -48 -53 0
-82 -50 -53 0
83 0
-83 9 10 11 19 20 21 44 45 46 56 0
-83 -9 -10 0
-83 -9 -11 0
-83 -9 -19 0
-83 -9 -20 0
-83 -9 -21 0
-83 -9 -44 0
-83 -9 -45 0
-83 -9 -46 0
-83 -9 -56 0
-83 -10 -11 0
-83 -10 -19 0
-83 -10 -20 0
-83 -10 -21 0
-83 -10 -44 0
-83 -10 -45 0
-83 -10 -46 0
-83 -10 -56 0
-83 -11 -19 0
-83 -11 -20 0
-83 -11 -21 0
-83 -11 -44 0
-83 -11 -45 0
-83 -11 -46 0
-83 -11 -56 0
-83 -19 -20 0
-83 -19 -21 0
-83 -19 -44 0
-83 -19 -45 0
-83 -19 -46 0
-83 -19 -56 0
-83 -20 -21 0
-83 -20 -44 0
-83 -20 -45 0
-83 -20 -46 0
-83 -20 -56 0
-83 -21 -44 0
-83 -21 -45 0
-83 -21 -46 0
-83 -21 -56 0
-83 -44 -45 0
-83 -44 -46 0
-83 -44 -56 0
-83 -45 -46 0
-83 -45 -56 0
-83 -46 -56 0
84 0
-84 8 10 11 17 18 21 42 43 46 55 0
-84 -8 -10 0
-84 -8 -11 0
-84 -8 -17 0
-84 -8 -18 0
-84 -8 -21 0
-84 -8 -42 0
-84 -8 -43 0
-84 -8 -46 0
-84 -8 -55 0
-84 -10 -11 0
-84 -10 -17 0
-84 -10 -18 0
-84 -10 -21 0
-84 -10 -42 0
-84 -10 -43 0
-84 -10 -46 0
-84 -10 -55 0
-84 -11 -17 0
-84 -11 -18 0
-84 -11 -21 0
-84 -11 -42 0
-84 -11 -43 0
-84 -11 -46 0
-84 -11 -55 0
-84 -17 -18 0
-84 -17 -21 0
-84 -17 -42 0
-84 -17 -43 0
-84 -17 -46 0
-84 -17 -55 0
-84 -18 -21 0
-84 -18 -42 0
-84 -18 -43 0
-84 -18 -46 0
-84 -18 -55 0
-84 -21 -42 0
-84 -21 -43 0
-84 -21 -46 0
-84 -21 -55 0
-84 -42 -43 0
-84 -42 -46 0
-84 -42 -55 0
-84 -43 -46 0
-84 -43 -55 0
-84 -46 -55 0
85 0
-85 8 9 11 16 18 20 41 43 45 54 0
-85 -8 -9 0
-85 -8 -11 0
-85 -8 -16 0
-85 -8 -18 0
-85 -8 -20 0
-85 -8 -41 0
-85 -8 -43 0
-85 -8 -45 0
-85 -8 -54 0
-85 -9 -11 0
-85 -9 -16 0
-85 -9 -18 0
-85 -9 -20 0
-85 -9 -41 0
-85 -9 -43 0
-85 -9 -45 0
-85 -9 -54 0
-85 -11 -16 0
-85 -11 -18 0
-85 -11 -20 0
-85 -11 -41 0
-85 -11 -43 0
-85 -11 -45 0
-85 -11 -54 0
-85 -16 -18 0
-85 -16 -20 0
-85 -16 -41 0
-85 -16 -43 0
-85 -16 -45 0
-85 -16 -54 0
-85 -18 -20 0
-85 -18 -41 0
-85 -18 -43 0
-85 -18 -45 0
-85 -18 -54 0
-85 -20 -41 0
-85 -20 -43 0
-85 -20 -45 0
-85 -20 -54 0
-85 -41 -43 0
-85 -41 -45 0
-85 -41 -54 0
-85 -43 -45 0
-85 -43 -54 0
-85 -45 -54 0
86 0
-86 8 9 10 16 17 19 41 42 44 53 0
-86 -8 -9 0
-86 -8 -10 0
-86 -8 -16 0
-86 -8 -17 0
-86 -8 -19 0
-86 -8 -41 0
-86 -8 -42 0
-86 -8 -44 0
-86 -8 -53 0
-86 -9 -10 0
-86 -9 -16 0
-86 -9 -17 0
-86 -9 -19 0
-86 -9 -41 0
-86 -9 -42 0
-86 -9 -44 0
-86 -9 -53 0
-86 -10 -16 0
-86 -10 -17 0
-86 -10 -19 0
-86 -10 -41 0
-86 -10 -42 0
-86 -10 -44 0
-86 -10 -53 0
-86 -16 -17 0
-86 -16 -19 0
-86 -16 -41 0
-86 -16 -42 0
-86 -16 -44 0
-86 -16 -53 0
-86 -17 -19 0
-86 -17 -41 0
-86 -17 -42 0
-86 -17 -44 0
-86 -17 -53 0
-86 -19 -41 0
-86 -19 -42 0
-86 -19 -44 0
-86 -19 -53 0
-86 -41 -42 0
-86 -41 -44 0
-86 -41 -53 0
-86 -42 -44 0
-86 -42 -53 0
-86 -44 -53 0
87 0
-87 7 10 11 14 15 21 39 40 46 52 0
-87 -7 -10 0
-87 -7 -11 0
-87 -7 -14 0
-87 -7 -15 0
-87 -7 -21 0
-87 -7 -39 0
-87 -7 -40 0
-87 -7 -46 0
-87 -7 -52 0
-87 -10 -11 0
-87 -10 -14 0
-87 -10 -15 0
-87 -10 -21 0
-87 -10 -39 0
-87 -10 -40 0
-87 -10 -46 0
-87 -10 -52 0
-87 -11 -14 0
-87 -11 -15 0
-87 -11 -21 0
-87 -11 -39 0
-87 -11 -40 0
-87 -11 -46 0
-87 -11 -52 0
-87 -14 -15 0
-87 -14 -21 0
-87 -14 -39 0
-87 -14 -40 0
-87 -14 -46 0
-87 -14 -52 0
-87 -15 -21 0
-87 -15 -39 0
-87 -15 -40 0
-87 -15 -46 0
-87 -15 -52 0
-87 -21 -39 0
-87 -21 -40 0
-87 -21 -46 0
-87 -21 -52 0
-87 -39 -40 0
-87 -39 -46 0
-87 -39 -52 0
-87 -40 -46 0
-87 -40 -52 0
-87 -46 -52 0
88 0
-88 7 9 11 13 15 20 38 40 45 51 0
-88 -7 -9 0
-88 -7 -11 0
-88 -7 -13 0
-88 -7 -15 0
-88 -7 -20 0
-88 -7 -38 0
-88 -7 -40 0
-88 -7 -45 0
-88 -7 -51 0
-88 -9 -11 0
-88 -9 -13 0
-88 -9 -15 0
-88 -9 -20 0
-88 -9 -38 0
-88 -9 -40 0
-88 -9 -45 0
-88 -9 -51 0
-88 -11 -13 0
-88 -11 -15 0
-88 -11 -20 0
-88 -11 -38 0
-88 -11 -40 0
-88 -11 -45 0
-88 -11 -51 0
-88 -13 -15 0
-88 -13 -20 0
-88 -13 -38 0
-88 -13 -40 0
-88 -13 -45 0
-88 -13 -51 0
-88 -15 -20 0
-88 -15 -38 0
-88 -15 -40 0
-88 -15 -45 0
-88 -15 -51 0
-88 -20 -38 0
-88 -20 -40 0
-88 -20 -45 0
-88 -20 -51 0
-88 -38 -40 0
-88 -38 -45 0
-88 -38 -51 0
-88 -40 -45 0
-88 -40 -51 0
-88 -45 -51 0
89 0
-89 7 9 10 13 14 19 38 39 44 50 0
-89 -7 -9 0
-89 -7 -10 0
-89 -7 -13 0
-89 -7 -14 0
-89 -7 -19 0
-89 -7 -38 0
-89 -7 -39 0
-89 -7 -44 0
-89 -7 -50 0
-89 -9 -10 0
-89 -9 -13 0
-89 -9 -14 0
-89 -9 -19 0
-89 -9 -38 0
-89 -9 -39 0
-89 -9 -44 0
-89 -9 -50 0
-89 -10 -13 0
-89 -10 -14 0
-89 -10 -19 0
-89 -10 -38 0
-89 -10 -39 0
-89 -10 -44 0
-89 -10 -50 0
-89 -13 -14 0
-89 -13 -19 0
-89 -13 -38 0
-89 -13 -39 0
-89 -13 -44 0
-89 -13 -50 0
-89 -14 -19 0
-89 -14 -38 0
-89 -14 -39 0
-89 -14 -44 0
-89 -14 -50 0
-89 -19 -38 0
-89 -19 -39 0
-89 -19 -44 0
-89 -19 -50 0
-89 -38 -39 0
-89 -38 -44 0
-89 -38 -50 0
-89 -39 -44 0
-89 -39 -50 0
-89 -44 -50 0
90 0
-90 7 8 11 12 15 18 37 40 43 49 0
-90 -7 -8 0
-90 -7 -11 0
-90 -7 -12 0
-90 -7 -15 0
-90 -7 -18 0
-90 -7 -37 0
-90 -7 -40 0
-90 -7 -43 0
-90 -7 -49 0
-90 -8 -11 0
-90 -8 -12 0
-90 -8 -15 0
-90 -8 -18 0
-90 -8 -37 0
-90 -8 -40 0
-90 -8 -43 0
-90 -8 -49 0
-90 -11 -12 0
-90 -11 -15 0
-90 -11 -18 0
-90 -11 -37 0
-90 -11 -40 0
-90 -11 -43 0
-90 -11 -49 0
-90 -12 -15 0
-90 -12 -18 0
-90 -12 -37 0
-90 -12 -40 0
-90 -12 -43 0
-90 -12 -49 0
-90 -15 -18 0
-90 -15 -37 0
-90 -15 -40 0
-90 -15 -43 0
-90 -15 -49 0
-90 -18 -37 0
-90 -18 -40 0
-90 -18 -43 0
-90 -18 -49 0
-90 -37 -40 0
-90 -37 -43 0
-90 -37 -49 0
-90 -40 -43 0
-90 -40 -49 0
-90 -43 -49 0
91 0
-91 7 8 10 12 14 17 37 39 42 48 0
-91 -7 -8 0
-91 -7 -10 0
-91 -7 -12 0
-91 -7 -14 0
-91 -7 -17 0
-91 -7 -37 0
-91 -7 -39 0
-91 -7 -42 0
-91 -7 -48 0
-91 -8 -10 0
-91 -8 -12 0
-91 -8 -14 0
-91 -8 -17 0
-91 -8 -37 0
-91 -8 -39 0
-91 -8 -42 0
-91 -8 -48 0
-91 -10 -12 0
-91 -10 -14 0
-91 -10 -17 0
-91 -10 -37 0
-91 -10 -39 0
-91 -10 -42 0
-91 -10 -48 0
-91 -12 -14 0
-91 -12 -17 0
-91 -12 -37 0
-91 -12 -39 0
-91 -12 -42 0
-91 -12 -48 0
-91 -14 -17 0
-91 -14 -37 0
-91 -14 -39 0
-91 -14 -42 0
-91 -14 -48 0
-91 -17 -37 0
-91 -17 -39 0
-91 -17 -42 0
-91 -17 -48 0
-91 -37 -39 0
-91 -37 -42 0
-91 -37 -48 0
-91 -39 -42 0
-91 -39 -48 0
-91 -42 -48 0
92 0
-92 7 8 9 12 13 16 37 38 41 47 0
-92 -7 -8 0
-92 -7 -9 0
-92 -7 -12 0
-92 -7 -13 0
-92 -7 -16 0
-92 -7 -37 0
-92 -7 -38 0
-92 -7 -41 0
-92 -7 -47 0
-92 -8 -9 0
-92 -8 -12 0
-92 -8 -13 0
-92 -8 -16 0
-92 -8 -37 0
-92 -8 -38 0
-92 -8 -41 0
-92 -8 -47 0
-92 -9 -12 0
-92 -9 -13 0
-92 -9 -16 0
-92 -9 -37 0
-92 -9 -38 0
-92 -9 -41 0
-92 -9 -47 0
-92 -12 -13 0
-92 -12 -16 0
-92 -12 -37 0
-92 -12 -38 0
-92 -12 -41 0
-92 -12 -47 0
-92 -13 -16 0
-92 -13 -37 0
-92 -13 -38 0
-92 -13 -41 0
-92 -13 -47 0
-92 -16 -37 0
-92 -16 -38 0
-92 -16 -41 0
-92 -16 -47 0
-92 -37 -38 0
-92 -37 -41 0
-92 -37 -47 0
-92 -38 -41 0
-92 -38 -47 0
-92 -41 -47 0
93 0
-93 4 5 6 19 20 21 34 35 36 56 0
-93 -4 -5 0
-93 -4 -6 0
-93 -4 -19 0
-93 -4 -20 0
-93 -4 -21 0
-93 -4 -34 0
-93 -4 -35 0
-93 -4 -36 0
-93 -4 -56 0
-93 -5 -6 0
-93 -5 -19 0
-93 -5 -20 0
-93 -5 -21 0
-93 -5 -34 0
-93 -5 -35 0
-93 -5 -36 0
-93 -5 -56 0
-93 -6 -19 0
-93 -6 -20 0
-93 -6 -21 0
-93 -6 -34 0
-93 -6 -35 0
-93 -6 -36 0
-93 -6 -56 0
-93 -19 -20 0
-93 -19 -21 0
-93 -19 -34 0
-93 -19 -35 0
-93 -19 -36 0
-93 -19 -56 0
-93 -20 -21 0
-93 -20 -34 0
-93 -20 -35 0
-93 -20 -36 0
-93 -20 -56 0
-93 -21 -34 0
-93 -21 -35 0
-93 -21 -36 0
-93 -21 -56 0
-93 -34 -35 0
-93 -34 -36 0
-93 -34 -56 0
-93 -35 -36 0
-93 -35 -56 0
-93 -36 -56 0
94 0
-94 3 5 6 17 18 21 32 33 36 55 0
-94 -3 -5 0
-94 -3 -6 0
-94 -3 -17 0
-94 -3 -18 0
-94 -3 -21 0
-94 -3 -32 0
-94 -3 -33 0
-94 -3 -36 0
-94 -3 -55 0
-94 -5 -6 0
-94 -5 -17 0
-94 -5 -18 0
-94 -5 -21 0
-94 -5 -32 0
-94 -5 -33 0
-94 -5 -36 0
-94 -5 -55 0
-94 -6 -17 0
-94 -6 -18 0
-94 -6 -21 0
-94 -6 -32 0
-94 -6 -33 0
-94 -6 -36 0
-94 -6 -55 0
-94 -17 -18 0
-94 -17 -21 0
-94 -17 -32 0
-94 -17 -33 0
-94 -17 -36 0
-94 -17 -55 0
-94 -18 -21 0
-94 -18 -32 0
-94 -18 -33 0
-94 -18 -36 0
-94 -18 -55 0
-94 -21 -32 0
-94 -21 -33 0
-94 -21 -36 0
-94 -21 -55 0
-94 -32 -33 0
-94 -32 -36 0
-94 -32 -55 0
-94 -33 -36 0
-94 -33 -55 0
-94 -36 -55 0
95 0
-95 3 4 6 16 18 20 31 33 35 54 0
-95 -3 -4 0
-95 -3 -6 0
-95 -3 -16 0
-95 -3 -18 0
-95 -3 -20 0
-95 -3 -31 0
-95 -3 -33 0
-95 -3 -35 0
-95 -3 -54 0
-95 -4 -6 0
-95 -4 -16 0
-95 -4 -18 0
-95 -4 -20 0
-95 -4 -31 0
-95 -4 -33 0
-95 -4 -35 0
-95 -4 -54 0
-95 -6 -16 0
-95 -6 -18 0
-95 -6 -20 0
-95 -6 -31 0
-95 -6 -33 0
-95 -6 -35 0
-95 -6 -54 0
-95 -16 -18 0
-95 -16 -20 0
-95 -16 -31 0
-95 -16 -33 0
-95 -16 -35 0
-95 -16 -54 0
-95 -18 -20 0
-95 -18 -31 0
-95 -18 -33 0
-95 -18 -35 0
-95 -18 -54 0
-95 -20 -31 0
-95 -20 -33 0
-95 -20 -35 0
-95 -20 -54 0
-95 -31 -33 0
-95 -31 -35 0
-95 -31 -54 0
-95 -33 -35 0
-95 -33 -54 0
-95 -35 -54 0
96 0
-96 3 4 5 16 17 19 31 32 34 53 0
-96 -3 -4 0
-96 -3 -5 0
-96 -3 -16 0
-96 -3 -17 0
-96 -3 -19 0
-96 -3 -31 0
-96 -3 -32 0
-96 -3 -34 0
-96 -3 -53 0
-96 -4 -5 0
-96 -4 -16 0
-96 -4 -17 0
-96 -4 -19 0
-96 -4 -31 0
-96 -4 -32 0
-96 -4 -34 0
-96 -4 -53 0
-96 -5 -16 0
-96 -5 -17 0
-96 -5 -19 0
-96 -5 -31 0
-96 -5 -32 0
-96 -5 -34 0
-96 -5 -53 0
-96 -16 -17 0
-96 -16 -19 0
-96 -16 -31 0
-96 -16 -32 0
-96 -16 -34 0
-96 -16 -53 0
-96 -17 -19 0
-96 -17 -31 0
-96 -17 -32 0
-96 -17 -34 0
-96 -17 -53 0
-96 -19 -31 0
-96 -19 -32 0
-96 -19 -34 0
-96 -19 -53 0
-96 -31 -32 0
-96 -31 -34 0
-96 -31 -53 0
-96 -32 -34 0
-96 -32 -53 0
-96 -34 -53 0
97 0
-97 2 5 6 14 15 21 29 30 36 52 0
-97 -2 -5 0
-97 -2 -6 0
-97 -2 -14 0
-97 -2 -15 0
-97 -2 -21 0
-97 -2 -29 0
-97 -2 -30 0
-97 -2 -36 0
-97 -2 -52 0
-97 -5 -6 0
-97 -5 -14 0
-97 -5 -15 0
-97 -5 -21 0
-97 -5 -29 0
-97 -5 -30 0
-97 -5 -36 0
-97 -5 -52 0
-97 -6 -14 0
-97 -6 -15 0
-97 -6 -21 0
-97 -6 -29 0
-97 -6 -30 0
-97 -6 -36 0
-97 -6 -52 0
-97 -14 -15 0
-97 -14 -21 0
-97 -14 -29 0
-97 -14 -30 0
-97 -14 -36 0
-97 -14 -52 0
-97 -15 -21 0
-97 -15 -29 0
-97 -15 -30 0
-97 -15 -36 0
-97 -15 -52 0
-97 -21 -29 0
-97 -21 -30 0
-97 -21 -36 0
-97 -21 -52 0
-97 -29 -30 0
-97 -29 -36 0
-97 -29 -52 0
-97 -30 -36 0
-97 -30 -52 0
-97 -36 -52 0
98 0
-98 2 4 6 13 15 20 28 30 35 51 0
-98 -2 -4 0
-98 -2 -6 0
-98 -2 -13 0
-98 -2 -15 0
-98 -2 -20 0
-98 -2 -28 0
-98 -2 -30 0
-98 -2 -35 0
-98 -2 -51 0
-98 -4 -6 0
-98 -4 -13 0
-98 -4 -15 0
-98 -4 -20 0
-98 -4 -28 0
-98 -4 -30 0
-98 -4 -35 0
-98 -4 -51 0
-98 -6 -13 0
-98 -6 -15 0
-98 -6 -20 0
-98 -6 -28 0
-98 -6 -30 0
-98 -6 -35 0
-98 -6 -51 0
-98 -13 -15 0
-98 -13 -20 0
-98 -13 -28 0
-98 -13 -30 0
-98 -13 -35 0
-98 -13 -51 0
-98 -15 -20 0
-98 -15 -28 0
-98 -15 -30 0
-98 -15 -35 0
-98 -15 -51 0
-98 -20 -28 0
-98 -20 -30 0
-98 -20 -35 0
-98 -20 -51 0
-98 -28 -30 0
-98 -28 -35 0
-98 -28 -51 0
-98 -30 -35 0
-98 -30 -51 0
-98 -35 -51 0
99 0
-99 2 4 5 13 14 19 28 29 34 50 0
-99 -2 -4 0
-99 -2 -5 0
-99 -2 -13 0
-99 -2 -14 0
-99 -2 -19 0
-99 -2 -28 0
-99 -2 -29 0
-99 -2 -34 0
-99 -2 -50 0
-99 -4 -5 0
-99 -4 -13 0
-99 -4 -14 0
-99 -4 -19 0
-99 -4 -28 0
-99 -4 -29 0
-99 -4 -34 0
-99 -4 -50 0
-99 -5 -13 0
-99 -5 -14 0
-99 -5 -19 0
-99 -5 -28 0
-99 -5 -29 0
-99 -5 -34 0
-99 -5 -50 0
-99 -13 -14 0
-99 -13 -19 0
-99 -13 -28 0
-99 -13 -29 0
-99 -13 -34 0
-99 -13 -50 0
-99 -14 -19 0
-99 -14 -28 0
-99 -14 -29 0
-99 -14 -34 0
-99 -14 -50 0
-99 -19 -28 0
-99 -19 -29 0
-99 -19 -34 0
-99 -19 -50 0
-99 -28 -29 0
-99 -28 -34 0
-99 -28 -50 0
-99 -29 -34 0
-99 -29 -50 0
-99 -34 -50 0
100 0
-100 2 3 6 12 15 18 27 30 33 49 0
-100 -2 -3 0
-100 -2 -6 0
-100 -2 -12 0
-100 -2 -15 0
-100 -2 -18 0
-100 -2 -27 0
-100 -2 -30 0
-100 -2 -33 0
-100 -2 -49 0
-100 -3 -6 0
-100 -3 -12 0
-100 -3 -15 0
-100 -3 -18 0
-100 -3 -27 0
-100 -3 -30 0
-100 -3 -33 0
-100 -3 -49 0
-100 -6 -12 0
-100 -6 -15 0
-100 -6 -18 0
-100 -6 -27 0
-100 -6 -30 0
-100 -6 -33 0
-100 -6 -49 0
-100 -12 -15 0
-100 -12 -18 0
-100 -12 -27 0
-100 -12 -30 0
-100 -12 -33 0
-100 -12 -49 0
-100 -15 -18 0
-100 -15 -27 0
-100 -15 -30 0
-100 -15 -33 0
-100 -15 -49 0
-100 -18 -27 0
-100 -18 -30 0
-100 -18 -33 0
-100 -18 -49 0
-100 -27 -30 0
-100 -27 -33 0
-100 -27 -49 0
-100 -30 -33 0
-100 -30 -49 0
-100 -33 -49 0
101 0
-101 2 3 5 12 14 17 27 29 32 48 0
-101 -2 -3 0
-101 -2 -5 0
-101 -2 -12 0
-101 -2 -14 0
-101 -2 -17 0
-101 -2 -27 0
-101 -2 -29 0
-101 -2 -32 0
-101 -2 -48 0
-101 -3 -5 0
-101 -3 -12 0
-101 -3 -14 0
-101 -3 -17 0
-101 -3 -27 0
-101 -3 -29 0
-101 -3 -32 0
-101 -3 -48 0
-101 -5 -12 0
-101 -5 -14 0
-101 -5 -17 0
-101 -5 -27 0
-101 -5 -29 0
-101 -5 -32 0
-101 -5 -48 0
-101 -12 -14 0
-101 -12 -17 0
-101 -12 -27 0
-101 -12 -29 0
-101 -12 -32 0
-101 -12 -48 0
-101 -14 -17 0
-101 -14 -27 0
-101 -14 -29 0
-101 -14 -32 0
-101 -14 -48 0
-101 -17 -27 0
-101 -17 -29 0
-101 -17 -32 0
-101 -17 -48 0
-101 -27 -29 0
-101 -27 -32 0
-101 -27 -48 0
-101 -29 -32 0
-101 -29 -48 0
-101 -32 -48 0
102 0
-102 2 3 4 12 13 16 27 28 31 47 0
-102 -2 -3 0
-102 -2 -4 0
-102 -2 -12 0
-102 -2 -13 0
-102 -2 -16 0
-102 -2 -27 0
-102 -2 -28 0
-102 -2 -31 0
-102 -2 -47 0
-102 -3 -4 0
-102 -3 -12 0
-102 -3 -13 0
-102 -3 -16 0
-102 -3 -27 0
-102 -3 -28 0
-102 -3 -31 0
-102 -3 -47 0
-102 -4 -12 0
-102 -4 -13 0
-102 -4 -16 0
-102 -4 -27 0
-102 -4 -28 0
-102 -4 -31 0
-102 -4 -47 0
-102 -12 -13 0
-102 -12 -16 0
-102 -12 -27 0
-102 -12 -28 0
-102 -12 -31 0
-102 -12 -47 0
-102 -13 -16 0
-102 -13 -27 0
-102 -13 -28 0
-102 -13 -31 0
-102 -13 -47 0
-102 -16 -27 0
-102 -16 -28 0
-102 -16 -31 0
-102 -16 -47 0
-102 -27 -28 0
-102 -27 -31 0
-102 -27 -47 0
-102 -28 -31 0
-102 -28 -47 0
-102 -31 -47 0
103 0
-103 1 5 6 10 11 21 25 26 36 46 0
-103 -1 -5 0
-103 -1 -6 0
-103 -1 -10 0
-103 -1 -11 0
-103 -1 -21 0
-103 -1 -25 0
-103 -1 -26 0
-103 -1 -36 0
-103 -1 -46 0
-103 -5 -6 0
-103 -5 -10 0
-103 -5 -11 0
-103 -5 -21 0
-103 -5 -25 0
-103 -5 -26 0
-103 -5 -36 0
-103 -5 -46 0
-103 -6 -10 0
-103 -6 -11 0
-103 -6 -21 0
-103 -6 -25 0
-103 -6 -26 0
-103 -6 -36 0
-103 -6 -46 0
-103 -10 -11 0
-103 -10 -21 0
-103 -10 -25 0
-103 -10 -26 0
-103 -10 -36 0
-103 -10 -46 0
-103 -11 -21 0
-103 -11 -25 0
-103 -11 -26 0
-103 -11 -36 0
-103 -11 -46 0
-103 -21 -25 0
-103 -21 -26 0
-103 -21 -36 0
-103 -21 -46 0
-103 -25 -26 0
-103 -25 -36 0
-103 -25 -46 0
-103 -26 -36 0
-103 -26 -46 0
-103 -36 -46 0
104 0
-104 1 4 6 9 11 20 24 26 35 45 0
-104 -1 -4 0
-104 -1 -6 0
-104 -1 -9 0
-104 -1 -11 0
-104 -1 -20 0
-104 -1 -24 0
-104 -1 -26 0
-104 -1 -35 0
-104 -1 -45 0
-104 -4 -6 0
-104 -4 -9 0
-104 -4 -11 0
-104 -4 -20 0
-104 -4 -24 0
-104 -4 -26 0
-104 -4 -35 0
-104 -4 -45 0
-104 -6 -9 0
-104 -6 -11 0
-104 -6 -20 0
-104 -6 -24 0
-104 -6 -26 0
-104 -6 -35 0
-104 -6 -45 0
-104 -9 -11 0
-104 -9 -20 0
-104 -9 -24 0
-104 -9 -26 0
-104 -9 -35 0
-104 -9 -45 0
-104 -11 -20 0
-104 -11 -24 0
-104 -11 -26 0
-104 -11 -35 0
-104 -11 -45 0
-104 -20 -24 0
-104 -20 -26 0
-104 -20 -35 0
-104 -20 -45 0
-104 -24 -26 0
-104 -24 -35 0
-104 -24 -45 0
-104 -26 -35 0
-104 -26 -45 0
-104 -35 -45 0
105 0
-105 1 4 5 9 10 19 24 25 34 44 0
-105 -1 -4 0
-105 -1 -5 0
-105 -1 -9 0
-105 -1 -10 0
-105 -1 -19 0
-105 -1 -24 0
-105 -1 -25 0
-105 -1 -34 0
-105 -1 -44 0
-105 -4 -5 0
-105 -4 -9 0
-105 -4 -10 0
-105 -4 -19 0
-105 -4 -24 0
-105 -4 -25 0
-105 -4 -34 0
-105 -4 -44 0
-105 -5 -9 0
-105 -5 -10 0
-105 -5 -19 0
-105 -5 -24 0
-105 -5 -25 0
-105 -5 -34 0
-105 -5 -44 0
-105 -9 -10 0
-105 -9 -19 0
-105 -9 -24 0
-105 -9 -25 0
-105 -9 -34 0
-105 -9 -44 0
-105 -10 -19 0
-105 -10 -24 0
-105 -10 -25 0
-105 -10 -34 0
-105 -10 -44 0
-105 -19 -24 0
-105 -19 -25 0
-105 -19 -34 0
-105 -19 -44 0
-105 -24 -25 0
-105 -24 -34 0
-105 -24 -44 0
-105 -25 -34 0
-105 -25 -44 0
-105 -34 -44 0
106 0
-106 1 3 6 8 11 18 23 26 33 43 0
-106 -1 -3 0
-106 -1 -6 0
-106 -1 -8 0
-106 -1 -11 0
-106 -1 -18 0
-106 -1 -23 0
-106 -1 -26 0
-106 -1 -33 0
-106 -1 -43 0
-106 -3 -6 0
-106 -3 -8 0
-106 -3 -11 0
-106 -3 -18 0
-106 -3 -23 0
-106 -3 -26 0
-106 -3 -33 0
-106 -3 -43 0
-106 -6 -8 0
-106 -6 -11 0
-106 -6 -18 0
-106 -6 -23 0
-106 -6 -26 0
-106 -6 -33 0
-106 -6 -43 0
-106 -8 -11 0
-106 -8 -18 0
-106 -8 -23 0
-106 -8 -26 0
-106 -8 -33 0
-106 -8 -43 0
-106 -11 -18 0
-106 -11 -23 0
-106 -11 -26 0
-106 -11 -33 0
-106 -11 -43 0
-106 -18 -23 0
-106 -18 -26 0
-106 -18 -33 0
-106 -18 -43 0
-106 -23 -26 0
-106 -23 -33 0
-106 -23 -43 0
-106 -26 -33 0
-106 -26 -43 0
-106 -33 -43 0
107 0
-107 1 3 5 8 10 17 23 25 32 42 0
-107 -1 -3 0
-107 -1 -5 0
-107 -1 -8 0
-107 -1 -10 0
-107 -1 -17 0
-107 -1 -23 0
-107 -1 -25 0
-107 -1 -32 0
-107 -1 -42 0
-107 -3 -5 0
-107 -3 -8 0
-107 -3 -10 0
-107 -3 -17 0
-107 -3 -23 0
-107 -3 -25 0
-107 -3 -32 0
-107 -3 -42 0
-107 -5 -8 0
-107 -5 -10 0
-107 -5 -17 0
-107 -5 -23 0
-107 -5 -25 0
-107 -5 -32 0
-107 -5 -42 0
-107 -8 -10 0
-107 -8 -17 0
-107 -8 -23 0
-107 -8 -25 0
-107 -8 -32 0
-107 -8 -42 0
-107 -10 -17 0
-107 -10 -23 0
-107 -10 -25 0
-107 -10 -32 0
-107 -10 -42 0
-107 -17 -23 0
-107 -17 -25 0
-107 -17 -32 0
-107 -17 -42 0
-107 -23 -25 0
-107 -23 -32 0
-107 -23 -42 0
-107 -25 -32 0
-107 -25 -42 0
-107 -32 -42 0
108 0
-108 1 3 4 8 9 16 23 24 31 41 0
-108 -1 -3 0
-108 -1 -4 0
-108 -1 -8 0
-108 -1 -9 0
-108 -1 -16 0
-108 -1 -23 0
-108 -1 -24 0
-108 -1 -31 0
-108 -1 -41 0
-108 -3 -4 0
-108 -3 -8 0
-108 -3 -9 0
-108 -3 -16 0
-108 -3 -23 0
-108 -3 -24 0
-108 -3 -31 0
-108 -3 -41 0
-108 -4 -8 0
-108 -4 -9 0
-108 -4 -16 0
-108 -4 -23 0
-108 -4 -24 0
-108 -4 -31 0
-108 -4 -41 0
-108 -8 -9 0
-108 -8 -16 0
-108 -8 -23 0
-108 -8 -24 0
-108 -8 -31 0
-108 -8 -41 0
-108 -9 -16 0
-108 -9 -23 0
-108 -9 -24 0
-108 -9 -31 0
-108 -9 -41 0
-108 -16 -23 0
-108 -16 -24 0
-108 -16 -31 0
-108 -16 -41 0
-108 -23 -24 0
-108 -23 -31 0
-108 -23 -41 0
-108 -24 -31 0
-108 -24 -41 0
-108 -31 -41 0
109 0
-109 1 2 6 7 11 15 22 26 30 40 0
-109 -1 -2 0
-109 -1 -6 0
-109 -1 -7 0
-109 -1 -11 0
-109 -1 -15 0
-109 -1 -22 0
-109 -1 -26 0
-109 -1 -30 0
-109 -1 -40 0
-109 -2 -6 0
-109 -2 -7 0
-109 -2 -11 0
-109 -2 -15 0
-109 -2 -22 0
-109 -2 -26 0
-109 -2 -30 0
-109 -2 -40 0
-109 -6 -7 0
-109 -6 -11 0
-109 -6 -15 0
-109 -6 -22 0
-109 -6 -26 0
-109 -6 -30 0
-109 -6 -40 0
-109 -7 -11 0
-109 -7 -15 0
-109 -7 -22 0
-109 -7 -26 0
-109 -7 -30 0
-109 -7 -40 0
-109 -11 -15 0
-109 -11 -22 0
-109 -11 -26 0
-109 -11 -30 0
-109 -11 -40 0
-109 -15 -22 0
-109 -15 -26 0
-109 -15 -30 0
-109 -15 -40 0
-109 -22 -26 0
-109 -22 -30 0
-109 -22 -40 0
-109 -26 -30 0
-109 -26 -40 0
-109 -30 -40 0
110 0
-110 1 2 5 7 10 14 22 25 29 39 0
-110 -1 -2 0
-110 -1 -5 0
-110 -1 -7 0
-110 -1 -10 0
-110 -1 -14 0
-110 -1 -22 0
-110 -1 -25 0
-110 -1 -29 0
-110 -1 -39 0
-110 -2 -5 0
-110 -2 -7 0
-110 -2 -10 0
-110 -2 -14 0
-110 -2 -22 0
-110 -2 -25 0
-110 -2 -29 0
-110 -2 -39 0
-110 -5 -7 0
-110 -5 -10 0
-110 -5 -14 0
-110 -5 -22 0
-110 -5 -25 0
-110 -5 -29 0
-110 -5 -39 0
-110 -7 -10 0
-110 -7 -14 0
-110 -7 -22 0
-110 -7 -25 0
-110 -7 -29 0
-110 -7 -39 0
-110 -10 -14 0
-110 -10 -22 0
-110 -10 -25 0
-110 -10 -29 0
-110 -10 -39 0
-110 -14 -22 0
-110 -14 -25 0
-110 -14 -29 0
-110 -14 -39 0
-110 -22 -25 0
-110 -22 -29 0
-110 -22 -39 0
-110 -25 -29 0
-110 -25 -39 0
-110 -29 -39 0
111 0
-111 1 2 4 7 9 13 22 24 28 38 0
-111 -1 -2 0
-111 -1 -4 0
-111 -1 -7 0
-111 -1 -9 0
-111 -1 -13 0
-111 -1 -22 0
-111 -1 -24 0
-111 -1 -28 0
-111 -1 -38 0
-111 -2 -4 0
-111 -2 -7 0
-111 -2 -9 0
-111 -2 -13 0
-111 -2 -22 0
-111 -2 -24 0
-111 -2 -28 0
-111 -2 -38 0
-111 -4 -7 0
-111 -4 -9 0
-111 -4 -13 0
-111 -4 -22 0
-111 -4 -24 0
-111 -4 -28 0
-111 -4 -38 0
-111 -7 -9 0
-111 -7 -13 0
-111 -7 -22 0
-111 -7 -24 0
-111 -7 -28 0
-111 -7 -38 0
-111 -9 -13 0
-111 -9 -22 0
-111 -9 -24 0
-111 -9 -28 0
-111 -9 -38 0
-111 -13 -22 0
-111 -13 -24 0
-111 -13 -28 0
-111 -13 -38 0
-111 -22 -24 0
-111 -22 -28 0
-111 -22 -38 0
-111 -24 -28 0
-111 -24 -38 0
-111 -28 -38 0
112 0
-112 1 2 3 7 8 12 22 23 27 37 0
-112 -1 -2 0
-112 -1 -3 0
-112 -1 -7 0
-112 -1 -8 0
-112 -1 -12 0
-112 -1 -22 0
-112 -1 -23 0
-112 -1 -27 0
-112 -1 -37 0
-112 -2 -3 0
-112 -2 -7 0
-112 -2 -8 0
-112 -2 -12 0
-112 -2 -22 0
-112 -2 -23 0
-112 -2 -27 0
-112 -2 -37 0
-112 -3 -7 0
-112 -3 -8 0
-112 -3 -12 0
-112 -3 -22 0
-112 -3 -23 0
-112 -3 -27 0
-112 -3 -37 0
-112 -7 -8 0
-112 -7 -12 0
-112 -7 -22 0
-112 -7 -23 0
-112 -7 -27 0
-112 -7 -37 0
-112 -8 -12 0
-112 -8 -22 0
-112 -8 -23 0
-112 -8 -27 0
-112 -8 -37 0
-112 -12 -22 0
-112 -12 -23 0
-112 -12 -27 0
-112 -12 -37 0
-112 -22 -23 0
-112 -22 -27 0
-112 -22 -37 0
-112 -23 -27 0
-112 -23 -37 0
-112 -27 -37 0
