c CFON* coloring of the Kneser graph K(9,2) with 2 color(s)
c vertices: the 2-subsets of 1..9 in lexicographic order, numbered from 0
c x(v,c) = variable v*2 + c                 'vertex v has color c'
c u(v,c) = variable 72 + v*2 + c       'v sees color c exactly once'
p cnf 144 15264
-1 -2 0
73 74 0
-73 31 33 35 37 39 41 43 45 47 49 51 53 55 57 59 61 63 65 67 69 71 0
-73 -31 -33 0
-73 -31 -35 0
-73 -31 -37 0
-73 -31 -39 0
-73 -31 -41 0
-73 -31 -43 0
-73 -31 -45 0
-73 -31 -47 0
-73 -31 -49 0
-73 -31 -51 0
-73 -31 -53 0
-73 -31 -55 0
-73 -31 -57 0
-73 -31 -59 0
-73 -31 -61 0
-73 -31 -63 0
-73 -31 -65 0
-73 -31 -67 0
-73 -31 -69 0
-73 -31 -71 0
-73 -33 -35 0
-73 -33 -37 0
-73 -33 -39 0
-73 -33 -41 0
-73 -33 -43 0
-73 -33 -45 0
-73 -33 -47 0
-73 -33 -49 0
-73 -33 -51 0
-73 -33 -53 0
-73 -33 -55 0
-73 -33 -57 0
-73 -33 -59 0
-73 -33 -61 0
-73 -33 -63 0
-73 -33 -65 0
-73 -33 -67 0
-73 -33 -69 0
-73 -33 -71 0
-73 -35 -37 0
-73 -35 -39 0
-73 -35 -41 0
-73 -35 -43 0
-73 -35 -45 0
-73 -35 -47 0
-73 -35 -49 0
-73 -35 -51 0
-73 -35 -53 0
-73 -35 -55 0
-73 -35 -57 0
-73 -35 -59 0
-73 -35 -61 0
-73 -35 -63 0
-73 -35 -65 0
-73 -35 -67 0
-73 -35 -69 0
-73 -35 -71 0
-73 -37 -39 0
-73 -37 -41 0
-73 -37 -43 0
-73 -37 -45 0
-73 -37 -47 0
-73 -37 -49 0
-73 -37 -51 0
-73 -37 -53 0
-73 -37 -55 0
-73 -37 -57 0
-73 -37 -59 0
-73 -37 -61 0
-73 -37 -63 0
-73 -37 -65 0
-73 -37 -67 0
-73 -37 -69 0
-73 -37 -71 0
-73 -39 -41 0
-73 -39 -43 0
-73 -39 -45 0
-73 -39 -47 0
-73 -39 -49 0
-73 -39 -51 0
-73 -39 -53 0
-73 -39 -55 0
-73 -39 -57 0
-73 -39 -59 0
-73 -39 -61 0
-73 -39 -63 0
-73 -39 -65 0
-73 -39 -67 0
-73 -39 -69 0
-73 -39 -71 0
-73 -41 -43 0
-73 -41 -45 0
-73 -41 -47 0
-73 -41 -49 0
-73 -41 -51 0
-73 -41 -53 0
-73 -41 -55 0
-73 -41 -57 0
-73 -41 -59 0
-73 -41 -61 0
-73 -41 -63 0
-73 -41 -65 0
-73 -41 -67 0
-73 -41 -69 0
-73 -41 -71 0
-73 -43 -45 0
-73 -43 -47 0
-73 -43 -49 0
-73 -43 -51 0
-73 -43 -53 0
-73 -43 -55 0
-73 -43 -57 0
-73 -43 -59 0
-73 -43 -61 0
-73 -43 -63 0
-73 -43 -65 0
-73 -43 -67 0
-73 -43 -69 0
-73 -43 -71 0
-73 -45 -47 0
-73 -45 -49 0
-73 -45 -51 0
-73 -45 -53 0
-73 -45 -55 0
-73 -45 -57 0
-73 -45 -59 0
-73 -45 -61 0
-73 -45 -63 0
-73 -45 -65 0
-73 -45 -67 0
-73 -45 -69 0
-73 -45 -71 0
-73 -47 -49 0
-73 -47 -51 0
-73 -47 -53 0
-73 -47 -55 0
-73 -47 -57 0
-73 -47 -59 0
-73 -47 -61 0
-73 -47 -63 0
-73 -47 -65 0
-73 -47 -67 0
-73 -47 -69 0
-73 -47 -71 0
-73 -49 -51 0
-73 -49 -53 0
-73 -49 -55 0
-73 -49 -57 0
-73 -49 -59 0
-73 -49 -61 0
-73 -49 -63 0
-73 -49 -65 0
-73 -49 -67 0
-73 -49 -69 0
-73 -49 -71 0
-73 -51 -53 0
-73 -51 -55 0
-73 -51 -57 0
-73 -51 -59 0
-73 -51 -61 0
-73 -51 -63 0
-73 -51 -65 0
-73 -51 -67 0
-73 -51 -69 0
-73 -51 -71 0
-73 -53 -55 0
-73 -53 -57 0
-73 -53 -59 0
-73 -53 -61 0
-73 -53 -63 0
-73 -53 -65 0
-73 -53 -67 0
-73 -53 -69 0
-73 -53 -71 0
-73 -55 -57 0
-73 -55 -59 0
-73 -55 -61 0
-73 -55 -63 0
-73 -55 -65 0
-73 -55 -67 0
-73 -55 -69 0
-73 -55 -71 0
-73 -57 -59 0
-73 -57 -61 0
-73 -57 -63 0
-73 -57 -65 0
-73 -57 -67 0
-73 -57 -69 0
-73 -57 -71 0
-73 -59 -61 0
-73 -59 -63 0
-73 -59 -65 0
-73 -59 -67 0
-73 -59 -69 0
-73 -59 -71 0
-73 -61 -63 0
-73 -61 -65 0
-73 -61 -67 0
-73 -61 -69 0
-73 -61 -71 0
-73 -63 -65 0
-73 -63 -67 0
-73 -63 -69 0
-73 -63 -71 0
-73 -65 -67 0
-73 -65 -69 0
-73 -65 -71 0
-73 -67 -69 0
-73 -67 -71 0
-73 -69 -71 0
-74 32 34 36 38 40 42 44 46 48 50 52 54 56 58 60 62 64 66 68 70 72 0
-74 -32 -34 0
-74 -32 -36 0
-74 -32 -38 0
-74 -32 -40 0
-74 -32 -42 0
-74 -32 -44 0
-74 -32 -46 0
-74 -32 -48 0
-74 -32 -50 0
-74 -32 -52 0
-74 -32 -54 0
-74 -32 -56 0
-74 -32 -58 0
-74 -32 -60 0
-74 -32 -62 0
-74 -32 -64 0
-74 -32 -66 0
-74 -32 -68 0
-74 -32 -70 0
-74 -32 -72 0
-74 -34 -36 0
-74 -34 -38 0
-74 -34 -40 0
-74 -34 -42 0
-74 -34 -44 0
-74 -34 -46 0
-74 -34 -48 0
-74 -34 -50 0
-74 -34 -52 0
-74 -34 -54 0
-74 -34 -56 0
-74 -34 -58 0
-74 -34 -60 0
-74 -34 -62 0
-74 -34 -64 0
-74 -34 -66 0
-74 -34 -68 0
-74 -34 -70 0
-74 -34 -72 0
-74 -36 -38 0
-74 -36 -40 0
-74 -36 -42 0
-74 -36 -44 0
-74 -36 -46 0
-74 -36 -48 0
-74 -36 -50 0
-74 -36 -52 0
-74 -36 -54 0
-74 -36 -56 0
-74 -36 -58 0
-74 -36 -60 0
-74 -36 -62 0
-74 -36 -64 0
-74 -36 -66 0
-74 -36 -68 0
-74 -36 -70 0
-74 -36 -72 0
-74 -38 -40 0
-74 -38 -42 0
-74 -38 -44 0
-74 -38 -46 0
-74 -38 -48 0
-74 -38 -50 0
-74 -38 -52 0
-74 -38 -54 0
-74 -38 -56 0
-74 -38 -58 0
-74 -38 -60 0
-74 -38 -62 0
-74 -38 -64 0
-74 -38 -66 0
-74 -38 -68 0
-74 -38 -70 0
-74 -38 -72 0
-74 -40 -42 0
-74 -40 -44 0
-74 -40 -46 0
-74 -40 -48 0
-74 -40 -50 0
-74 -40 -52 0
-74 -40 -54 0
-74 -40 -56 0
-74 -40 -58 0
-74 -40 -60 0
-74 -40 -62 0
-74 -40 -64 0
-74 -40 -66 0
-74 -40 -68 0
-74 -40 -70 0
-74 -40 -72 0
-74 -42 -44 0
-74 -42 -46 0
-74 -42 -48 0
-74 -42 -50 0
-74 -42 -52 0
-74 -42 -54 0
-74 -42 -56 0
-74 -42 -58 0
-74 -42 -60 0
-74 -42 -62 0
-74 -42 -64 0
-74 -42 -66 0
-74 -42 -68 0
-74 -42 -70 0
-74 -42 -72 0
-74 -44 -46 0
-74 -44 -48 0
-74 -44 -50 0
-74 -44 -52 0
-74 -44 -54 0
-74 -44 -56 0
-74 -44 -58 0
-74 -44 -60 0
-74 -44 -62 0
-74 -44 -64 0
-74 -44 -66 0
-74 -44 -68 0
-74 -44 -70 0
-74 -44 -72 0
-74 -46 -48 0
-74 -46 -50 0
-74 -46 -52 0
-74 -46 -54 0
-74 -46 -56 0
-74 -46 -58 0
-74 -46 -60 0
-74 -46 -62 0
-74 -46 -64 0
-74 -46 -66 0
-74 -46 -68 0
-74 -46 -70 0
-74 -46 -72 0
-74 -48 -50 0
-74 -48 -52 0
-74 -48 -54 0
-74 -48 -56 0
-74 -48 -58 0
-74 -48 -60 0
-74 -48 -62 0
-74 -48 -64 0
-74 -48 -66 0
-74 -48 -68 0
-74 -48 -70 0
-74 -48 -72 0
-74 -50 -52 0
-74 -50 -54 0
-74 -50 -56 0
-74 -50 -58 0
-74 -50 -60 0
-74 -50 -62 0
-74 -50 -64 0
-74 -50 -66 0
-74 -50 -68 0
-74 -50 -70 0
-74 -50 -72 0
-74 -52 -54 0
-74 -52 -56 0
-74 -52 -58 0
-74 -52 -60 0
-74 -52 -62 0
-74 -52 -64 0
-74 -52 -66 0
-74 -52 -68 0
-74 -52 -70 0
-74 -52 -72 0
-74 -54 -56 0
-74 -54 -58 0
-74 -54 -60 0
-74 -54 -62 0
-74 -54 -64 0
-74 -54 -66 0
-74 -54 -68 0
-74 -54 -70 0
-74 -54 -72 0
-74 -56 -58 0
-74 -56 -60 0
-74 -56 -62 0
-74 -56 -64 0
-74 -56 -66 0
-74 -56 -68 0
-74 -56 -70 0
-74 -56 -72 0
-74 -58 -60 0
-74 -58 -62 0
-74 -58 -64 0
-74 -58 -66 0
-74 -58 -68 0
-74 -58 -70 0
-74 -58 -72 0
-74 -60 -62 0
-74 -60 -64 0
-74 -60 -66 0
-74 -60 -68 0
-74 -60 -70 0
-74 -60 -72 0
-74 -62 -64 0
-74 -62 -66 0
-74 -62 -68 0
-74 -62 -70 0
-74 -62 -72 0
-74 -64 -66 0
-74 -64 -68 0
-74 -64 -70 0
-74 -64 -72 0
-74 -66 -68 0
-74 -66 -70 0
-74 -66 -72 0
-74 -68 -70 0
-74 -68 -72 0
-74 -70 -72 0
-3 -4 0
75 76 0
-75 19 21 23 25 27 29 43 45 47 49 51 53 55 57 59 61 63 65 67 69 71 0
-75 -19 -21 0
-75 -19 -23 0
-75 -19 -25 0
-75 -19 -27 0
-75 -19 -29 0
-75 -19 -43 0
-75 -19 -45 0
-75 -19 -47 0
-75 -19 -49 0
-75 -19 -51 0
-75 -19 -53 0
-75 -19 -55 0
-75 -19 -57 0
-75 -19 -59 0
-75 -19 -61 0
-75 -19 -63 0
-75 -19 -65 0
-75 -19 -67 0
-75 -19 -69 0
-75 -19 -71 0
-75 -21 -23 0
-75 -21 -25 0
-75 -21 -27 0
-75 -21 -29 0
-75 -21 -43 0
-75 -21 -45 0
-75 -21 -47 0
-75 -21 -49 0
-75 -21 -51 0
-75 -21 -53 0
-75 -21 -55 0
-75 -21 -57 0
-75 -21 -59 0
-75 -21 -61 0
-75 -21 -63 0
-75 -21 -65 0
-75 -21 -67 0
-75 -21 -69 0
-75 -21 -71 0
-75 -23 -25 0
-75 -23 -27 0
-75 -23 -29 0
-75 -23 -43 0
-75 -23 -45 0
-75 -23 -47 0
-75 -23 -49 0
-75 -23 -51 0
-75 -23 -53 0
-75 -23 -55 0
-75 -23 -57 0
-75 -23 -59 0
-75 -23 -61 0
-75 -23 -63 0
-75 -23 -65 0
-75 -23 -67 0
-75 -23 -69 0
-75 -23 -71 0
-75 -25 -27 0
-75 -25 -29 0
-75 -25 -43 0
-75 -25 -45 0
-75 -25 -47 0
-75 -25 -49 0
-75 -25 -51 0
-75 -25 -53 0
-75 -25 -55 0
-75 -25 -57 0
-75 -25 -59 0
-75 -25 -61 0
-75 -25 -63 0
-75 -25 -65 0
-75 -25 -67 0
-75 -25 -69 0
-75 -25 -71 0
-75 -27 -29 0
-75 -27 -43 0
-75 -27 -45 0
-75 -27 -47 0
-75 -27 -49 0
-75 -27 -51 0
-75 -27 -53 0
-75 -27 -55 0
-75 -27 -57 0
-75 -27 -59 0
-75 -27 -61 0
-75 -27 -63 0
-75 -27 -65 0
-75 -27 -67 0
-75 -27 -69 0
-75 -27 -71 0
-75 -29 -43 0
-75 -29 -45 0
-75 -29 -47 0
-75 -29 -49 0
-75 -29 -51 0
-75 -29 -53 0
-75 -29 -55 0
-75 -29 -57 0
-75 -29 -59 0
-75 -29 -61 0
-75 -29 -63 0
-75 -29 -65 0
-75 -29 -67 0
-75 -29 -69 0
-75 -29 -71 0
-75 -43 -45 0
-75 -43 -47 0
-75 -43 -49 0
-75 -43 -51 0
-75 -43 -53 0
-75 -43 -55 0
-75 -43 -57 0
-75 -43 -59 0
-75 -43 -61 0
-75 -43 -63 0
-75 -43 -65 0
-75 -43 -67 0
-75 -43 -69 0
-75 -43 -71 0
-75 -45 -47 0
-75 -45 -49 0
-75 -45 -51 0
-75 -45 -53 0
-75 -45 -55 0
-75 -45 -57 0
-75 -45 -59 0
-75 -45 -61 0
-75 -45 -63 0
-75 -45 -65 0
-75 -45 -67 0
-75 -45 -69 0
-75 -45 -71 0
-75 -47 -49 0
-75 -47 -51 0
-75 -47 -53 0
-75 -47 -55 0
-75 -47 -57 0
-75 -47 -59 0
-75 -47 -61 0
-75 -47 -63 0
-75 -47 -65 0
-75 -47 -67 0
-75 -47 -69 0
-75 -47 -71 0
-75 -49 -51 0
-75 -49 -53 0
-75 -49 -55 0
-75 -49 -57 0
-75 -49 -59 0
-75 -49 -61 0
-75 -49 -63 0
-75 -49 -65 0
-75 -49 -67 0
-75 -49 -69 0
-75 -49 -71 0
-75 -51 -53 0
-75 -51 -55 0
-75 -51 -57 0
-75 -51 -59 0
-75 -51 -61 0
-75 -51 -63 0
-75 -51 -65 0
-75 -51 -67 0
-75 -51 -69 0
-75 -51 -71 0
-75 -53 -55 0
-75 -53 -57 0
-75 -53 -59 0
-75 -53 -61 0
-75 -53 -63 0
-75 -53 -65 0
-75 -53 -67 0
-75 -53 -69 0
-75 -53 -71 0
-75 -55 -57 0
-75 -55 -59 0
-75 -55 -61 0
-75 -55 -63 0
-75 -55 -65 0
-75 -55 -67 0
-75 -55 -69 0
-75 -55 -71 0
-75 -57 -59 0
-75 -57 -61 0
-75 -57 -63 0
-75 -57 -65 0
-75 -57 -67 0
-75 -57 -69 0
-75 -57 -71 0
-75 -59 -61 0
-75 -59 -63 0
-75 -59 -65 0
-75 -59 -67 0
-75 -59 -69 0
-75 -59 -71 0
-75 -61 -63 0
-75 -61 -65 0
-75 -61 -67 0
-75 -61 -69 0
-75 -61 -71 0
-75 -63 -65 0
-75 -63 -67 0
-75 -63 -69 0
-75 -63 -71 0
-75 -65 -67 0
-75 -65 -69 0
-75 -65 -71 0
-75 -67 -69 0
-75 -67 -71 0
-75 -69 -71 0
-76 20 22 24 26 28 30 44 46 48 50 52 54 56 58 60 62 64 66 68 70 72 0
-76 -20 -22 0
-76 -20 -24 0
-76 -20 -26 0
-76 -20 -28 0
-76 -20 -30 0
-76 -20 -44 0
-76 -20 -46 0
-76 -20 -48 0
-76 -20 -50 0
-76 -20 -52 0
-76 -20 -54 0
-76 -20 -56 0
-76 -20 -58 0
-76 -20 -60 0
-76 -20 -62 0
-76 -20 -64 0
-76 -20 -66 0
-76 -20 -68 0
-76 -20 -70 0
-76 -20 -72 0
-76 -22 -24 0
-76 -22 -26 0
-76 -22 -28 0
-76 -22 -30 0
-76 -22 -44 0
-76 -22 -46 0
-76 -22 -48 0
-76 -22 -50 0
-76 -22 -52 0
-76 -22 -54 0
-76 -22 -56 0
-76 -22 -58 0
-76 -22 -60 0
-76 -22 -62 0
-76 -22 -64 0
-76 -22 -66 0
-76 -22 -68 0
-76 -22 -70 0
-76 -22 -72 0
-76 -24 -26 0
-76 -24 -28 0
-76 -24 -30 0
-76 -24 -44 0
-76 -24 -46 0
-76 -24 -48 0
-76 -24 -50 0
-76 -24 -52 0
-76 -24 -54 0
-76 -24 -56 0
-76 -24 -58 0
-76 -24 -60 0
-76 -24 -62 0
-76 -24 -64 0
-76 -24 -66 0
-76 -24 -68 0
-76 -24 -70 0
-76 -24 -72 0
-76 -26 -28 0
-76 -26 -30 0
-76 -26 -44 0
-76 -26 -46 0
-76 -26 -48 0
-76 -26 -50 0
-76 -26 -52 0
-76 -26 -54 0
-76 -26 -56 0
-76 -26 -58 0
-76 -26 -60 0
-76 -26 -62 0
-76 -26 -64 0
-76 -26 -66 0
-76 -26 -68 0
-76 -26 -70 0
-76 -26 -72 0
-76 -28 -30 0
-76 -28 -44 0
-76 -28 -46 0
-76 -28 -48 0
-76 -28 -50 0
-76 -28 -52 0
-76 -28 -54 0
-76 -28 -56 0
-76 -28 -58 0
-76 -28 -60 0
-76 -28 -62 0
-76 -28 -64 0
-76 -28 -66 0
-76 -28 -68 0
-76 -28 -70 0
-76 -28 -72 0
-76 -30 -44 0
-76 -30 -46 0
-76 -30 -48 0
-76 -30 -50 0
-76 -30 -52 0
-76 -30 -54 0
-76 -30 -56 0
-76 -30 -58 0
-76 -30 -60 0
-76 -30 -62 0
-76 -30 -64 0
-76 -30 -66 0
-76 -30 -68 0
-76 -30 -70 0
-76 -30 -72 0
-76 -44 -46 0
-76 -44 -48 0
-76 -44 -50 0
-76 -44 -52 0
-76 -44 -54 0
-76 -44 -56 0
-76 -44 -58 0
-76 -44 -60 0
-76 -44 -62 0
-76 -44 -64 0
-76 -44 -66 0
-76 -44 -68 0
-76 -44 -70 0
-76 -44 -72 0
-76 -46 -48 0
-76 -46 -50 0
-76 -46 -52 0
-76 -46 -54 0
-76 -46 -56 0
-76 -46 -58 0
-76 -46 -60 0
-76 -46 -62 0
-76 -46 -64 0
-76 -46 -66 0
-76 -46 -68 0
-76 -46 -70 0
-76 -46 -72 0
-76 -48 -50 0
-76 -48 -52 0
-76 -48 -54 0
-76 -48 -56 0
-76 -48 -58 0
-76 -48 -60 0
-76 -48 -62 0
-76 -48 -64 0
-76 -48 -66 0
-76 -48 -68 0
-76 -48 -70 0
-76 -48 -72 0
-76 -50 -52 0
-76 -50 -54 0
-76 -50 -56 0
-76 -50 -58 0
-76 -50 -60 0
-76 -50 -62 0
-76 -50 -64 0
-76 -50 -66 0
-76 -50 -68 0
-76 -50 -70 0
-76 -50 -72 0
-76 -52 -54 0
-76 -52 -56 0
-76 -52 -58 0
-76 -52 -60 0
-76 -52 -62 0
-76 -52 -64 0
-76 -52 -66 0
-76 -52 -68 0
-76 -52 -70 0
-76 -52 -72 0
-76 -54 -56 0
-76 -54 -58 0
-76 -54 -60 0
-76 -54 -62 0
-76 -54 -64 0
-76 -54 -66 0
-76 -54 -68 0
-76 -54 -70 0
-76 -54 -72 0
-76 -56 -58 0
-76 -56 -60 0
-76 -56 -62 0
-76 -56 -64 0
-76 -56 -66 0
-76 -56 -68 0
-76 -56 -70 0
-76 -56 -72 0
-76 -58 -60 0
-76 -58 -62 0
-76 -58 -64 0
-76 -58 -66 0
-76 -58 -68 0
-76 -58 -70 0
-76 -58 -72 0
-76 -60 -62 0
-76 -60 -64 0
-76 -60 -66 0
-76 -60 -68 0
-76 -60 -70 0
-76 -60 -72 0
-76 -62 -64 0
-76 -62 -66 0
-76 -62 -68 0
-76 -62 -70 0
-76 -62 -72 0
-76 -64 -66 0
-76 -64 -68 0
-76 -64 -70 0
-76 -64 -72 0
-76 -66 -68 0
-76 -66 -70 0
-76 -66 -72 0
-76 -68 -70 0
-76 -68 -72 0
-76 -70 -72 0
-5 -6 0
77 78 0
-77 17 21 23 25 27 29 33 35 37 39 41 53 55 57 59 61 63 65 67 69 71 0
-77 -17 -21 0
-77 -17 -23 0
-77 -17 -25 0
-77 -17 -27 0
-77 -17 -29 0
-77 -17 -33 0
-77 -17 -35 0
-77 -17 -37 0
-77 -17 -39 0
-77 -17 -41 0
-77 -17 -53 0
-77 -17 -55 0
-77 -17 -57 0
-77 -17 -59 0
-77 -17 -61 0
-77 -17 -63 0
-77 -17 -65 0
-77 -17 -67 0
-77 -17 -69 0
-77 -17 -71 0
-77 -21 -23 0
-77 -21 -25 0
-77 -21 -27 0
-77 -21 -29 0
-77 -21 -33 0
-77 -21 -35 0
-77 -21 -37 0
-77 -21 -39 0
-77 -21 -41 0
-77 -21 -53 0
-77 -21 -55 0
-77 -21 -57 0
-77 -21 -59 0
-77 -21 -61 0
-77 -21 -63 0
-77 -21 -65 0
-77 -21 -67 0
-77 -21 -69 0
-77 -21 -71 0
-77 -23 -25 0
-77 -23 -27 0
-77 -23 -29 0
-77 -23 -33 0
-77 -23 -35 0
-77 -23 -37 0
-77 -23 -39 0
-77 -23 -41 0
-77 -23 -53 0
-77 -23 -55 0
-77 -23 -57 0
-77 -23 -59 0
-77 -23 -61 0
-77 -23 -63 0
-77 -23 -65 0
-77 -23 -67 0
-77 -23 -69 0
-77 -23 -71 0
-77 -25 -27 0
-77 -25 -29 0
-77 -25 -33 0
-77 -25 -35 0
-77 -25 -37 0
-77 -25 -39 0
-77 -25 -41 0
-77 -25 -53 0
-77 -25 -55 0
-77 -25 -57 0
-77 -25 -59 0
-77 -25 -61 0
-77 -25 -63 0
-77 -25 -65 0
-77 -25 -67 0
-77 -25 -69 0
-77 -25 -71 0
-77 -27 -29 0
-77 -27 -33 0
-77 -27 -35 0
-77 -27 -37 0
-77 -27 -39 0
-77 -27 -41 0
-77 -27 -53 0
-77 -27 -55 0
-77 -27 -57 0
-77 -27 -59 0
-77 -27 -61 0
-77 -27 -63 0
-77 -27 -65 0
-77 -27 -67 0
-77 -27 -69 0
-77 -27 -71 0
-77 -29 -33 0
-77 -29 -35 0
-77 -29 -37 0
-77 -29 -39 0
-77 -29 -41 0
-77 -29 -53 0
-77 -29 -55 0
-77 -29 -57 0
-77 -29 -59 0
-77 -29 -61 0
-77 -29 -63 0
-77 -29 -65 0
-77 -29 -67 0
-77 -29 -69 0
-77 -29 -71 0
-77 -33 -35 0
-77 -33 -37 0
-77 -33 -39 0
-77 -33 -41 0
-77 -33 -53 0
-77 -33 -55 0
-77 -33 -57 0
-77 -33 -59 0
-77 -33 -61 0
-77 -33 -63 0
-77 -33 -65 0
-77 -33 -67 0
-77 -33 -69 0
-77 -33 -71 0
-77 -35 -37 0
-77 -35 -39 0
-77 -35 -41 0
-77 -35 -53 0
-77 -35 -55 0
-77 -35 -57 0
-77 -35 -59 0
-77 -35 -61 0
-77 -35 -63 0
-77 -35 -65 0
-77 -35 -67 0
-77 -35 -69 0
-77 -35 -71 0
-77 -37 -39 0
-77 -37 -41 0
-77 -37 -53 0
-77 -37 -55 0
-77 -37 -57 0
-77 -37 -59 0
-77 -37 -61 0
-77 -37 -63 0
-77 -37 -65 0
-77 -37 -67 0
-77 -37 -69 0
-77 -37 -71 0
-77 -39 -41 0
-77 -39 -53 0
-77 -39 -55 0
-77 -39 -57 0
-77 -39 -59 0
-77 -39 -61 0
-77 -39 -63 0
-77 -39 -65 0
-77 -39 -67 0
-77 -39 -69 0
-77 -39 -71 0
-77 -41 -53 0
-77 -41 -55 0
-77 -41 -57 0
-77 -41 -59 0
-77 -41 -61 0
-77 -41 -63 0
-77 -41 -65 0
-77 -41 -67 0
-77 -41 -69 0
-77 -41 -71 0
-77 -53 -55 0
-77 -53 -57 0
-77 -53 -59 0
-77 -53 -61 0
-77 -53 -63 0
-77 -53 -65 0
-77 -53 -67 0
-77 -53 -69 0
-77 -53 -71 0
-77 -55 -57 0
-77 -55 -59 0
-77 -55 -61 0
-77 -55 -63 0
-77 -55 -65 0
-77 -55 -67 0
-77 -55 -69 0
-77 -55 -71 0
-77 -57 -59 0
-77 -57 -61 0
-77 -57 -63 0
-77 -57 -65 0
-77 -57 -67 0
-77 -57 -69 0
-77 -57 -71 0
-77 -59 -61 0
-77 -59 -63 0
-77 -59 -65 0
-77 -59 -67 0
-77 -59 -69 0
-77 -59 -71 0
-77 -61 -63 0
-77 -61 -65 0
-77 -61 -67 0
-77 -61 -69 0
-77 -61 -71 0
-77 -63 -65 0
-77 -63 -67 0
-77 -63 -69 0
-77 -63 -71 0
-77 -65 -67 0
-77 -65 -69 0
-77 -65 -71 0
-77 -67 -69 0
-77 -67 -71 0
-77 -69 -71 0
-78 18 22 24 26 28 30 34 36 38 40 42 54 56 58 60 62 64 66 68 70 72 0
-78 -18 -22 0
-78 -18 -24 0
-78 -18 -26 0
-78 -18 -28 0
-78 -18 -30 0
-78 -18 -34 0
-78 -18 -36 0
-78 -18 -38 0
-78 -18 -40 0
-78 -18 -42 0
-78 -18 -54 0
-78 -18 -56 0
-78 -18 -58 0
-78 -18 -60 0
-78 -18 -62 0
-78 -18 -64 0
-78 -18 -66 0
-78 -18 -68 0
-78 -18 -70 0
-78 -18 -72 0
-78 -22 -24 0
-78 -22 -26 0
-78 -22 -28 0
-78 -22 -30 0
-78 -22 -34 0
-78 -22 -36 0
-78 -22 -38 0
-78 -22 -40 0
-78 -22 -42 0
-78 -22 -54 0
-78 -22 -56 0
-78 -22 -58 0
-78 -22 -60 0
-78 -22 -62 0
-78 -22 -64 0
-78 -22 -66 0
-78 -22 -68 0
-78 -22 -70 0
-78 -22 -72 0
-78 -24 -26 0
-78 -24 -28 0
-78 -24 -30 0
-78 -24 -34 0
-78 -24 -36 0
-78 -24 -38 0
-78 -24 -40 0
-78 -24 -42 0
-78 -24 -54 0
-78 -24 -56 0
-78 -24 -58 0
-78 -24 -60 0
-78 -24 -62 0
-78 -24 -64 0
-78 -24 -66 0
-78 -24 -68 0
-78 -24 -70 0
-78 -24 -72 0
-78 -26 -28 0
-78 -26 -30 0
-78 -26 -34 0
-78 -26 -36 0
-78 -26 -38 0
-78 -26 -40 0
-78 -26 -42 0
-78 -26 -54 0
-78 -26 -56 0
-78 -26 -58 0
-78 -26 -60 0
-78 -26 -62 0
-78 -26 -64 0
-78 -26 -66 0
-78 -26 -68 0
-78 -26 -70 0
-78 -26 -72 0
-78 -28 -30 0
-78 -28 -34 0
-78 -28 -36 0
-78 -28 -38 0
-78 -28 -40 0
-78 -28 -42 0
-78 -28 -54 0
-78 -28 -56 0
-78 -28 -58 0
-78 -28 -60 0
-78 -28 -62 0
-78 -28 -64 0
-78 -28 -66 0
-78 -28 -68 0
-78 -28 -70 0
-78 -28 -72 0
-78 -30 -34 0
-78 -30 -36 0
-78 -30 -38 0
-78 -30 -40 0
-78 -30 -42 0
-78 -30 -54 0
-78 -30 -56 0
-78 -30 -58 0
-78 -30 -60 0
-78 -30 -62 0
-78 -30 -64 0
-78 -30 -66 0
-78 -30 -68 0
-78 -30 -70 0
-78 -30 -72 0
-78 -34 -36 0
-78 -34 -38 0
-78 -34 -40 0
-78 -34 -42 0
-78 -34 -54 0
-78 -34 -56 0
-78 -34 -58 0
-78 -34 -60 0
-78 -34 -62 0
-78 -34 -64 0
-78 -34 -66 0
-78 -34 -68 0
-78 -34 -70 0
-78 -34 -72 0
-78 -36 -38 0
-78 -36 -40 0
-78 -36 -42 0
-78 -36 -54 0
-78 -36 -56 0
-78 -36 -58 0
-78 -36 -60 0
-78 -36 -62 0
-78 -36 -64 0
-78 -36 -66 0
-78 -36 -68 0
-78 -36 -70 0
-78 -36 -72 0
-78 -38 -40 0
-78 -38 -42 0
-78 -38 -54 0
-78 -38 -56 0
-78 -38 -58 0
-78 -38 -60 0
-78 -38 -62 0
-78 -38 -64 0
-78 -38 -66 0
-78 -38 -68 0
-78 -38 -70 0
-78 -38 -72 0
-78 -40 -42 0
-78 -40 -54 0
-78 -40 -56 0
-78 -40 -58 0
-78 -40 -60 0
-78 -40 -62 0
-78 -40 -64 0
-78 -40 -66 0
-78 -40 -68 0
-78 -40 -70 0
-78 -40 -72 0
-78 -42 -54 0
-78 -42 -56 0
-78 -42 -58 0
-78 -42 -60 0
-78 -42 -62 0
-78 -42 -64 0
-78 -42 -66 0
-78 -42 -68 0
-78 -42 -70 0
-78 -42 -72 0
-78 -54 -56 0
-78 -54 -58 0
-78 -54 -60 0
-78 -54 -62 0
-78 -54 -64 0
-78 -54 -66 0
-78 -54 -68 0
-78 -54 -70 0
-78 -54 -72 0
-78 -56 -58 0
-78 -56 -60 0
-78 -56 -62 0
-78 -56 -64 0
-78 -56 -66 0
-78 -56 -68 0
-78 -56 -70 0
-78 -56 -72 0
-78 -58 -60 0
-78 -58 -62 0
-78 -58 -64 0
-78 -58 -66 0
-78 -58 -68 0
-78 -58 -70 0
-78 -58 -72 0
-78 -60 -62 0
-78 -60 -64 0
-78 -60 -66 0
-78 -60 -68 0
-78 -60 -70 0
-78 -60 -72 0
-78 -62 -64 0
-78 -62 -66 0
-78 -62 -68 0
-78 -62 -70 0
-78 -62 -72 0
-78 -64 -66 0
-78 -64 -68 0
-78 -64 -70 0
-78 -64 -72 0
-78 -66 -68 0
-78 -66 -70 0
-78 -66 -72 0
-78 -68 -70 0
-78 -68 -72 0
-78 -70 -72 0
-7 -8 0
79 80 0
-79 17 19 23 25 27 29 31 35 37 39 41 45 47 49 51 61 63 65 67 69 71 0
-79 -17 -19 0
-79 -17 -23 0
-79 -17 -25 0
-79 -17 -27 0
-79 -17 -29 0
-79 -17 -31 0
-79 -17 -35 0
-79 -17 -37 0
-79 -17 -39 0
-79 -17 -41 0
-79 -17 -45 0
-79 -17 -47 0
-79 -17 -49 0
-79 -17 -51 0
-79 -17 -61 0
-79 -17 -63 0
-79 -17 -65 0
-79 -17 -67 0
-79 -17 -69 0
-79 -17 -71 0
-79 -19 -23 0
-79 -19 -25 0
-79 -19 -27 0
-79 -19 -29 0
-79 -19 -31 0
-79 -19 -35 0
-79 -19 -37 0
-79 -19 -39 0
-79 -19 -41 0
-79 -19 -45 0
-79 -19 -47 0
-79 -19 -49 0
-79 -19 -51 0
-79 -19 -61 0
-79 -19 -63 0
-79 -19 -65 0
-79 -19 -67 0
-79 -19 -69 0
-79 -19 -71 0
-79 -23 -25 0
-79 -23 -27 0
-79 -23 -29 0
-79 -23 -31 0
-79 -23 -35 0
-79 -23 -37 0
-79 -23 -39 0
-79 -23 -41 0
-79 -23 -45 0
-79 -23 -47 0
-79 -23 -49 0
-79 -23 -51 0
-79 -23 -61 0
-79 -23 -63 0
-79 -23 -65 0
-79 -23 -67 0
-79 -23 -69 0
-79 -23 -71 0
-79 -25 -27 0
-79 -25 -29 0
-79 -25 -31 0
-79 -25 -35 0
-79 -25 -37 0
-79 -25 -39 0
-79 -25 -41 0
-79 -25 -45 0
-79 -25 -47 0
-79 -25 -49 0
-79 -25 -51 0
-79 -25 -61 0
-79 -25 -63 0
-79 -25 -65 0
-79 -25 -67 0
-79 -25 -69 0
-79 -25 -71 0
-79 -27 -29 0
-79 -27 -31 0
-79 -27 -35 0
-79 -27 -37 0
-79 -27 -39 0
-79 -27 -41 0
-79 -27 -45 0
-79 -27 -47 0
-79 -27 -49 0
-79 -27 -51 0
-79 -27 -61 0
-79 -27 -63 0
-79 -27 -65 0
-79 -27 -67 0
-79 -27 -69 0
-79 -27 -71 0
-79 -29 -31 0
-79 -29 -35 0
-79 -29 -37 0
-79 -29 -39 0
-79 -29 -41 0
-79 -29 -45 0
-79 -29 -47 0
-79 -29 -49 0
-79 -29 -51 0
-79 -29 -61 0
-79 -29 -63 0
-79 -29 -65 0
-79 -29 -67 0
-79 -29 -69 0
-79 -29 -71 0
-79 -31 -35 0
-79 -31 -37 0
-79 -31 -39 0
-79 -31 -41 0
-79 -31 -45 0
-79 -31 -47 0
-79 -31 -49 0
-79 -31 -51 0
-79 -31 -61 0
-79 -31 -63 0
-79 -31 -65 0
-79 -31 -67 0
-79 -31 -69 0
-79 -31 -71 0
-79 -35 -37 0
-79 -35 -39 0
-79 -35 -41 0
-79 -35 -45 0
-79 -35 -47 0
-79 -35 -49 0
-79 -35 -51 0
-79 -35 -61 0
-79 -35 -63 0
-79 -35 -65 0
-79 -35 -67 0
-79 -35 -69 0
-79 -35 -71 0
-79 -37 -39 0
-79 -37 -41 0
-79 -37 -45 0
-79 -37 -47 0
-79 -37 -49 0
-79 -37 -51 0
-79 -37 -61 0
-79 -37 -63 0
-79 -37 -65 0
-79 -37 -67 0
-79 -37 -69 0
-79 -37 -71 0
-79 -39 -41 0
-79 -39 -45 0
-79 -39 -47 0
-79 -39 -49 0
-79 -39 -51 0
-79 -39 -61 0
-79 -39 -63 0
-79 -39 -65 0
-79 -39 -67 0
-79 -39 -69 0
-79 -39 -71 0
-79 -41 -45 0
-79 -41 -47 0
-79 -41 -49 0
-79 -41 -51 0
-79 -41 -61 0
-79 -41 -63 0
-79 -41 -65 0
-79 -41 -67 0
-79 -41 -69 0
-79 -41 -71 0
-79 -45 -47 0
-79 -45 -49 0
-79 -45 -51 0
-79 -45 -61 0
-79 -45 -63 0
-79 -45 -65 0
-79 -45 -67 0
-79 -45 -69 0
-79 -45 -71 0
-79 -47 -49 0
-79 -47 -51 0
-79 -47 -61 0
-79 -47 -63 0
-79 -47 -65 0
-79 -47 -67 0
-79 -47 -69 0
-79 -47 -71 0
-79 -49 -51 0
-79 -49 -61 0
-79 -49 -63 0
-79 -49 -65 0
-79 -49 -67 0
-79 -49 -69 0
-79 -49 -71 0
-79 -51 -61 0
-79 -51 -63 0
-79 -51 -65 0
-79 -51 -67 0
-79 -51 -69 0
-79 -51 -71 0
-79 -61 -63 0
-79 -61 -65 0
-79 -61 -67 0
-79 -61 -69 0
-79 -61 -71 0
-79 -63 -65 0
-79 -63 -67 0
-79 -63 -69 0
-79 -63 -71 0
-79 -65 -67 0
-79 -65 -69 0
-79 -65 -71 0
-79 -67 -69 0
-79 -67 -71 0
-79 -69 -71 0
-80 18 20 24 26 28 30 32 36 38 40 42 46 48 50 52 62 64 66 68 70 72 0
-80 -18 -20 0
-80 -18 -24 0
-80 -18 -26 0
-80 -18 -28 0
-80 -18 -30 0
-80 -18 -32 0
-80 -18 -36 0
-80 -18 -38 0
-80 -18 -40 0
-80 -18 -42 0
-80 -18 -46 0
-80 -18 -48 0
-80 -18 -50 0
-80 -18 -52 0
-80 -18 -62 0
-80 -18 -64 0
-80 -18 -66 0
-80 -18 -68 0
-80 -18 -70 0
-80 -18 -72 0
-80 -20 -24 0
-80 -20 -26 0
-80 -20 -28 0
-80 -20 -30 0
-80 -20 -32 0
-80 -20 -36 0
-80 -20 -38 0
-80 -20 -40 0
-80 -20 -42 0
-80 -20 -46 0
-80 -20 -48 0
-80 -20 -50 0
-80 -20 -52 0
-80 -20 -62 0
-80 -20 -64 0
-80 -20 -66 0
-80 -20 -68 0
-80 -20 -70 0
-80 -20 -72 0
-80 -24 -26 0
-80 -24 -28 0
-80 -24 -30 0
-80 -24 -32 0
-80 -24 -36 0
-80 -24 -38 0
-80 -24 -40 0
-80 -24 -42 0
-80 -24 -46 0
-80 -24 -48 0
-80 -24 -50 0
-80 -24 -52 0
-80 -24 -62 0
-80 -24 -64 0
-80 -24 -66 0
-80 -24 -68 0
-80 -24 -70 0
-80 -24 -72 0
-80 -26 -28 0
-80 -26 -30 0
-80 -26 -32 0
-80 -26 -36 0
-80 -26 -38 0
-80 -26 -40 0
-80 -26 -42 0
-80 -26 -46 0
-80 -26 -48 0
-80 -26 -50 0
-80 -26 -52 0
-80 -26 -62 0
-80 -26 -64 0
-80 -26 -66 0
-80 -26 -68 0
-80 -26 -70 0
-80 -26 -72 0
-80 -28 -30 0
-80 -28 -32 0
-80 -28 -36 0
-80 -28 -38 0
-80 -28 -40 0
-80 -28 -42 0
-80 -28 -46 0
-80 -28 -48 0
-80 -28 -50 0
-80 -28 -52 0
-80 -28 -62 0
-80 -28 -64 0
-80 -28 -66 0
-80 -28 -68 0
-80 -28 -70 0
-80 -28 -72 0
-80 -30 -32 0
-80 -30 -36 0
-80 -30 -38 0
-80 -30 -40 0
-80 -30 -42 0
-80 -30 -46 0
-80 -30 -48 0
-80 -30 -50 0
-80 -30 -52 0
-80 -30 -62 0
-80 -30 -64 0
-80 -30 -66 0
-80 -30 -68 0
-80 -30 -70 0
-80 -30 -72 0
-80 -32 -36 0
-80 -32 -38 0
-80 -32 -40 0
-80 -32 -42 0
-80 -32 -46 0
-80 -32 -48 0
-80 -32 -50 0
-80 -32 -52 0
-80 -32 -62 0
-80 -32 -64 0
-80 -32 -66 0
-80 -32 -68 0
-80 -32 -70 0
-80 -32 -72 0
-80 -36 -38 0
-80 -36 -40 0
-80 -36 -42 0
-80 -36 -46 0
-80 -36 -48 0
-80 -36 -50 0
-80 -36 -52 0
-80 -36 -62 0
-80 -36 -64 0
-80 -36 -66 0
-80 -36 -68 0
-80 -36 -70 0
-80 -36 -72 0
-80 -38 -40 0
-80 -38 -42 0
-80 -38 -46 0
-80 -38 -48 0
-80 -38 -50 0
-80 -38 -52 0
-80 -38 -62 0
-80 -38 -64 0
-80 -38 -66 0
-80 -38 -68 0
-80 -38 -70 0
-80 -38 -72 0
-80 -40 -42 0
-80 -40 -46 0
-80 -40 -48 0
-80 -40 -50 0
-80 -40 -52 0
-80 -40 -62 0
-80 -40 -64 0
-80 -40 -66 0
-80 -40 -68 0
-80 -40 -70 0
-80 -40 -72 0
-80 -42 -46 0
-80 -42 -48 0
-80 -42 -50 0
-80 -42 -52 0
-80 -42 -62 0
-80 -42 -64 0
-80 -42 -66 0
-80 -42 -68 0
-80 -42 -70 0
-80 -42 -72 0
-80 -46 -48 0
-80 -46 -50 0
-80 -46 -52 0
-80 -46 -62 0
-80 -46 -64 0
-80 -46 -66 0
-80 -46 -68 0
-80 -46 -70 0
-80 -46 -72 0
-80 -48 -50 0
-80 -48 -52 0
-80 -48 -62 0
-80 -48 -64 0
-80 -48 -66 0
-80 -48 -68 0
-80 -48 -70 0
-80 -48 -72 0
-80 -50 -52 0
-80 -50 -62 0
-80 -50 -64 0
-80 -50 -66 0
-80 -50 -68 0
-80 -50 -70 0
-80 -50 -72 0
-80 -52 -62 0
-80 -52 -64 0
-80 -52 -66 0
-80 -52 -68 0
-80 -52 -70 0
-80 -52 -72 0
-80 -62 -64 0
-80 -62 -66 0
-80 -62 -68 0
-80 -62 -70 0
-80 -62 -72 0
-80 -64 -66 0
-80 -64 -68 0
-80 -64 -70 0
-80 -64 -72 0
-80 -66 -68 0
-80 -66 -70 0
-80 -66 -72 0
-80 -68 -70 0
-80 -68 -72 0
-80 -70 -72 0
-9 -10 0
81 82 0
-81 17 19 21 25 27 29 31 33 37 39 41 43 47 49 51 55 57 59 67 69 71 0
-81 -17 -19 0
-81 -17 -21 0
-81 -17 -25 0
-81 -17 -27 0
-81 -17 -29 0
-81 -17 -31 0
-81 -17 -33 0
-81 -17 -37 0
-81 -17 -39 0
-81 -17 -41 0
-81 -17 -43 0
-81 -17 -47 0
-81 -17 -49 0
-81 -17 -51 0
-81 -17 -55 0
-81 -17 -57 0
-81 -17 -59 0
-81 -17 -67 0
-81 -17 -69 0
-81 -17 -71 0
-81 -19 -21 0
-81 -19 -25 0
-81 -19 -27 0
-81 -19 -29 0
-81 -19 -31 0
-81 -19 -33 0
-81 -19 -37 0
-81 -19 -39 0
-81 -19 -41 0
-81 -19 -43 0
-81 -19 -47 0
-81 -19 -49 0
-81 -19 -51 0
-81 -19 -55 0
-81 -19 -57 0
-81 -19 -59 0
-81 -19 -67 0
-81 -19 -69 0
-81 -19 -71 0
-81 -21 -25 0
-81 -21 -27 0
-81 -21 -29 0
-81 -21 -31 0
-81 -21 -33 0
-81 -21 -37 0
-81 -21 -39 0
-81 -21 -41 0
-81 -21 -43 0
-81 -21 -47 0
-81 -21 -49 0
-81 -21 -51 0
-81 -21 -55 0
-81 -21 -57 0
-81 -21 -59 0
-81 -21 -67 0
-81 -21 -69 0
-81 -21 -71 0
-81 -25 -27 0
-81 -25 -29 0
-81 -25 -31 0
-81 -25 -33 0
-81 -25 -37 0
-81 -25 -39 0
-81 -25 -41 0
-81 -25 -43 0
-81 -25 -47 0
-81 -25 -49 0
-81 -25 -51 0
-81 -25 -55 0
-81 -25 -57 0
-81 -25 -59 0
-81 -25 -67 0
-81 -25 -69 0
-81 -25 -71 0
-81 -27 -29 0
-81 -27 -31 0
-81 -27 -33 0
-81 -27 -37 0
-81 -27 -39 0
-81 -27 -41 0
-81 -27 -43 0
-81 -27 -47 0
-81 -27 -49 0
-81 -27 -51 0
-81 -27 -55 0
-81 -27 -57 0
-81 -27 -59 0
-81 -27 -67 0
-81 -27 -69 0
-81 -27 -71 0
-81 -29 -31 0
-81 -29 -33 0
-81 -29 -37 0
-81 -29 -39 0
-81 -29 -41 0
-81 -29 -43 0
-81 -29 -47 0
-81 -29 -49 0
-81 -29 -51 0
-81 -29 -55 0
-81 -29 -57 0
-81 -29 -59 0
-81 -29 -67 0
-81 -29 -69 0
-81 -29 -71 0
-81 -31 -33 0
-81 -31 -37 0
-81 -31 -39 0
-81 -31 -41 0
-81 -31 -43 0
-81 -31 -47 0
-81 -31 -49 0
-81 -31 -51 0
-81 -31 -55 0
-81 -31 -57 0
-81 -31 -59 0
-81 -31 -67 0
-81 -31 -69 0
-81 -31 -71 0
-81 -33 -37 0
-81 -33 -39 0
-81 -33 -41 0
-81 -33 -43 0
-81 -33 -47 0
-81 -33 -49 0
-81 -33 -51 0
-81 -33 -55 0
-81 -33 -57 0
-81 -33 -59 0
-81 -33 -67 0
-81 -33 -69 0
-81 -33 -71 0
-81 -37 -39 0
-81 -37 -41 0
-81 -37 -43 0
-81 -37 -47 0
-81 -37 -49 0
-81 -37 -51 0
-81 -37 -55 0
-81 -37 -57 0
-81 -37 -59 0
-81 -37 -67 0
-81 -37 -69 0
-81 -37 -71 0
-81 -39 -41 0
-81 -39 -43 0
-81 -39 -47 0
-81 -39 -49 0
-81 -39 -51 0
-81 -39 -55 0
-81 -39 -57 0
-81 -39 -59 0
-81 -39 -67 0
-81 -39 -69 0
-81 -39 -71 0
-81 -41 -43 0
-81 -41 -47 0
-81 -41 -49 0
-81 -41 -51 0
-81 -41 -55 0
-81 -41 -57 0
-81 -41 -59 0
-81 -41 -67 0
-81 -41 -69 0
-81 -41 -71 0
-81 -43 -47 0
-81 -43 -49 0
-81 -43 -51 0
-81 -43 -55 0
-81 -43 -57 0
-81 -43 -59 0
-81 -43 -67 0
-81 -43 -69 0
-81 -43 -71 0
-81 -47 -49 0
-81 -47 -51 0
-81 -47 -55 0
-81 -47 -57 0
-81 -47 -59 0
-81 -47 -67 0
-81 -47 -69 0
-81 -47 -71 0
-81 -49 -51 0
-81 -49 -55 0
-81 -49 -57 0
-81 -49 -59 0
-81 -49 -67 0
-81 -49 -69 0
-81 -49 -71 0
-81 -51 -55 0
-81 -51 -57 0
-81 -51 -59 0
-81 -51 -67 0
-81 -51 -69 0
-81 -51 -71 0
-81 -55 -57 0
-81 -55 -59 0
-81 -55 -67 0
-81 -55 -69 0
-81 -55 -71 0
-81 -57 -59 0
-81 -57 -67 0
-81 -57 -69 0
-81 -57 -71 0
-81 -59 -67 0
-81 -59 -69 0
-81 -59 -71 0
-81 -67 -69 0
-81 -67 -71 0
-81 -69 -71 0
-82 18 20 22 26 28 30 32 34 38 40 42 44 48 50 52 56 58 60 68 70 72 0
-82 -18 -20 0
-82 -18 -22 0
-82 -18 -26 0
-82 -18 -28 0
-82 -18 -30 0
-82 -18 -32 0
-82 -18 -34 0
-82 -18 -38 0
-82 -18 -40 0
-82 -18 -42 0
-82 -18 -44 0
-82 -18 -48 0
-82 -18 -50 0
-82 -18 -52 0
-82 -18 -56 0
-82 -18 -58 0
-82 -18 -60 0
-82 -18 -68 0
-82 -18 -70 0
-82 -18 -72 0
-82 -20 -22 0
-82 -20 -26 0
-82 -20 -28 0
-82 -20 -30 0
-82 -20 -32 0
-82 -20 -34 0
-82 -20 -38 0
-82 -20 -40 0
-82 -20 -42 0
-82 -20 -44 0
-82 -20 -48 0
-82 -20 -50 0
-82 -20 -52 0
-82 -20 -56 0
-82 -20 -58 0
-82 -20 -60 0
-82 -20 -68 0
-82 -20 -70 0
-82 -20 -72 0
-82 -22 -26 0
-82 -22 -28 0
-82 -22 -30 0
-82 -22 -32 0
-82 -22 -34 0
-82 -22 -38 0
-82 -22 -40 0
-82 -22 -42 0
-82 -22 -44 0
-82 -22 -48 0
-82 -22 -50 0
-82 -22 -52 0
-82 -22 -56 0
-82 -22 -58 0
-82 -22 -60 0
-82 -22 -68 0
-82 -22 -70 0
-82 -22 -72 0
-82 -26 -28 0
-82 -26 -30 0
-82 -26 -32 0
-82 -26 -34 0
-82 -26 -38 0
-82 -26 -40 0
-82 -26 -42 0
-82 -26 -44 0
-82 -26 -48 0
-82 -26 -50 0
-82 -26 -52 0
-82 -26 -56 0
-82 -26 -58 0
-82 -26 -60 0
-82 -26 -68 0
-82 -26 -70 0
-82 -26 -72 0
-82 -28 -30 0
-82 -28 -32 0
-82 -28 -34 0
-82 -28 -38 0
-82 -28 -40 0
-82 -28 -42 0
-82 -28 -44 0
-82 -28 -48 0
-82 -28 -50 0
-82 -28 -52 0
-82 -28 -56 0
-82 -28 -58 0
-82 -28 -60 0
-82 -28 -68 0
-82 -28 -70 0
-82 -28 -72 0
-82 -30 -32 0
-82 -30 -34 0
-82 -30 -38 0
-82 -30 -40 0
-82 -30 -42 0
-82 -30 -44 0
-82 -30 -48 0
-82 -30 -50 0
-82 -30 -52 0
-82 -30 -56 0
-82 -30 -58 0
-82 -30 -60 0
-82 -30 -68 0
-82 -30 -70 0
-82 -30 -72 0
-82 -32 -34 0
-82 -32 -38 0
-82 -32 -40 0
-82 -32 -42 0
-82 -32 -44 0
-82 -32 -48 0
-82 -32 -50 0
-82 -32 -52 0
-82 -32 -56 0
-82 -32 -58 0
-82 -32 -60 0
-82 -32 -68 0
-82 -32 -70 0
-82 -32 -72 0
-82 -34 -38 0
-82 -34 -40 0
-82 -34 -42 0
-82 -34 -44 0
-82 -34 -48 0
-82 -34 -50 0
-82 -34 -52 0
-82 -34 -56 0
-82 -34 -58 0
-82 -34 -60 0
-82 -34 -68 0
-82 -34 -70 0
-82 -34 -72 0
-82 -38 -40 0
-82 -38 -42 0
-82 -38 -44 0
-82 -38 -48 0
-82 -38 -50 0
-82 -38 -52 0
-82 -38 -56 0
-82 -38 -58 0
-82 -38 -60 0
-82 -38 -68 0
-82 -38 -70 0
-82 -38 -72 0
-82 -40 -42 0
-82 -40 -44 0
-82 -40 -48 0
-82 -40 -50 0
-82 -40 -52 0
-82 -40 -56 0
-82 -40 -58 0
-82 -40 -60 0
-82 -40 -68 0
-82 -40 -70 0
-82 -40 -72 0
-82 -42 -44 0
-82 -42 -48 0
-82 -42 -50 0
-82 -42 -52 0
-82 -42 -56 0
-82 -42 -58 0
-82 -42 -60 0
-82 -42 -68 0
-82 -42 -70 0
-82 -42 -72 0
-82 -44 -48 0
-82 -44 -50 0
-82 -44 -52 0
-82 -44 -56 0
-82 -44 -58 0
-82 -44 -60 0
-82 -44 -68 0
-82 -44 -70 0
-82 -44 -72 0
-82 -48 -50 0
-82 -48 -52 0
-82 -48 -56 0
-82 -48 -58 0
-82 -48 -60 0
-82 -48 -68 0
-82 -48 -70 0
-82 -48 -72 0
-82 -50 -52 0
-82 -50 -56 0
-82 -50 -58 0
-82 -50 -60 0
-82 -50 -68 0
-82 -50 -70 0
-82 -50 -72 0
-82 -52 -56 0
-82 -52 -58 0
-82 -52 -60 0
-82 -52 -68 0
-82 -52 -70 0
-82 -52 -72 0
-82 -56 -58 0
-82 -56 -60 0
-82 -56 -68 0
-82 -56 -70 0
-82 -56 -72 0
-82 -58 -60 0
-82 -58 -68 0
-82 -58 -70 0
-82 -58 -72 0
-82 -60 -68 0
-82 -60 -70 0
-82 -60 -72 0
-82 -68 -70 0
-82 -68 -72 0
-82 -70 -72 0
-11 -12 0
83 84 0
-83 17 19 21 23 27 29 31 33 35 39 41 43 45 49 51 53 57 59 63 65 71 0
-83 -17 -19 0
-83 -17 -21 0
-83 -17 -23 0
-83 -17 -27 0
-83 -17 -29 0
-83 -17 -31 0
-83 -17 -33 0
-83 -17 -35 0
-83 -17 -39 0
-83 -17 -41 0
-83 -17 -43 0
-83 -17 -45 0
-83 -17 -49 0
-83 -17 -51 0
-83 -17 -53 0
-83 -17 -57 0
-83 -17 -59 0
-83 -17 -63 0
-83 -17 -65 0
-83 -17 -71 0
-83 -19 -21 0
-83 -19 -23 0
-83 -19 -27 0
-83 -19 -29 0
-83 -19 -31 0
-83 -19 -33 0
-83 -19 -35 0
-83 -19 -39 0
-83 -19 -41 0
-83 -19 -43 0
-83 -19 -45 0
-83 -19 -49 0
-83 -19 -51 0
-83 -19 -53 0
-83 -19 -57 0
-83 -19 -59 0
-83 -19 -63 0
-83 -19 -65 0
-83 -19 -71 0
-83 -21 -23 0
-83 -21 -27 0
-83 -21 -29 0
-83 -21 -31 0
-83 -21 -33 0
-83 -21 -35 0
-83 -21 -39 0
-83 -21 -41 0
-83 -21 -43 0
-83 -21 -45 0
-83 -21 -49 0
-83 -21 -51 0
-83 -21 -53 0
-83 -21 -57 0
-83 -21 -59 0
-83 -21 -63 0
-83 -21 -65 0
-83 -21 -71 0
-83 -23 -27 0
-83 -23 -29 0
-83 -23 -31 0
-83 -23 -33 0
-83 -23 -35 0
-83 -23 -39 0
-83 -23 -41 0
-83 -23 -43 0
-83 -23 -45 0
-83 -23 -49 0
-83 -23 -51 0
-83 -23 -53 0
-83 -23 -57 0
-83 -23 -59 0
-83 -23 -63 0
-83 -23 -65 0
-83 -23 -71 0
-83 -27 -29 0
-83 -27 -31 0
-83 -27 -33 0
-83 -27 -35 0
-83 -27 -39 0
-83 -27 -41 0
-83 -27 -43 0
-83 -27 -45 0
-83 -27 -49 0
-83 -27 -51 0
-83 -27 -53 0
-83 -27 -57 0
-83 -27 -59 0
-83 -27 -63 0
-83 -27 -65 0
-83 -27 -71 0
-83 -29 -31 0
-83 -29 -33 0
-83 -29 -35 0
-83 -29 -39 0
-83 -29 -41 0
-83 -29 -43 0
-83 -29 -45 0
-83 -29 -49 0
-83 -29 -51 0
-83 -29 -53 0
-83 -29 -57 0
-83 -29 -59 0
-83 -29 -63 0
-83 -29 -65 0
-83 -29 -71 0
-83 -31 -33 0
-83 -31 -35 0
-83 -31 -39 0
-83 -31 -41 0
-83 -31 -43 0
-83 -31 -45 0
-83 -31 -49 0
-83 -31 -51 0
-83 -31 -53 0
-83 -31 -57 0
-83 -31 -59 0
-83 -31 -63 0
-83 -31 -65 0
-83 -31 -71 0
-83 -33 -35 0
-83 -33 -39 0
-83 -33 -41 0
-83 -33 -43 0
-83 -33 -45 0
-83 -33 -49 0
-83 -33 -51 0
-83 -33 -53 0
-83 -33 -57 0
-83 -33 -59 0
-83 -33 -63 0
-83 -33 -65 0
-83 -33 -71 0
-83 -35 -39 0
-83 -35 -41 0
-83 -35 -43 0
-83 -35 -45 0
-83 -35 -49 0
-83 -35 -51 0
-83 -35 -53 0
-83 -35 -57 0
-83 -35 -59 0
-83 -35 -63 0
-83 -35 -65 0
-83 -35 -71 0
-83 -39 -41 0
-83 -39 -43 0
-83 -39 -45 0
-83 -39 -49 0
-83 -39 -51 0
-83 -39 -53 0
-83 -39 -57 0
-83 -39 -59 0
-83 -39 -63 0
-83 -39 -65 0
-83 -39 -71 0
-83 -41 -43 0
-83 -41 -45 0
-83 -41 -49 0
-83 -41 -51 0
-83 -41 -53 0
-83 -41 -57 0
-83 -41 -59 0
-83 -41 -63 0
-83 -41 -65 0
-83 -41 -71 0
-83 -43 -45 0
-83 -43 -49 0
-83 -43 -51 0
-83 -43 -53 0
-83 -43 -57 0
-83 -43 -59 0
-83 -43 -63 0
-83 -43 -65 0
-83 -43 -71 0
-83 -45 -49 0
-83 -45 -51 0
-83 -45 -53 0
-83 -45 -57 0
-83 -45 -59 0
-83 -45 -63 0
-83 -45 -65 0
-83 -45 -71 0
-83 -49 -51 0
-83 -49 -53 0
-83 -49 -57 0
-83 -49 -59 0
-83 -49 -63 0
-83 -49 -65 0
-83 -49 -71 0
-83 -51 -53 0
-83 -51 -57 0
-83 -51 -59 0
-83 -51 -63 0
-83 -51 -65 0
-83 -51 -71 0
-83 -53 -57 0
-83 -53 -59 0
-83 -53 -63 0
-83 -53 -65 0
-83 -53 -71 0
-83 -57 -59 0
-83 -57 -63 0
-83 -57 -65 0
-83 -57 -71 0
-83 -59 -63 0
-83 -59 -65 0
-83 -59 -71 0
-83 -63 -65 0
-83 -63 -71 0
-83 -65 -71 0
-84 18 20 22 24 28 30 32 34 36 40 42 44 46 50 52 54 58 60 64 66 72 0
-84 -18 -20 0
-84 -18 -22 0
-84 -18 -24 0
-84 -18 -28 0
-84 -18 -30 0
-84 -18 -32 0
-84 -18 -34 0
-84 -18 -36 0
-84 -18 -40 0
-84 -18 -42 0
-84 -18 -44 0
-84 -18 -46 0
-84 -18 -50 0
-84 -18 -52 0
-84 -18 -54 0
-84 -18 -58 0
-84 -18 -60 0
-84 -18 -64 0
-84 -18 -66 0
-84 -18 -72 0
-84 -20 -22 0
-84 -20 -24 0
-84 -20 -28 0
-84 -20 -30 0
-84 -20 -32 0
-84 -20 -34 0
-84 -20 -36 0
-84 -20 -40 0
-84 -20 -42 0
-84 -20 -44 0
-84 -20 -46 0
-84 -20 -50 0
-84 -20 -52 0
-84 -20 -54 0
-84 -20 -58 0
-84 -20 -60 0
-84 -20 -64 0
-84 -20 -66 0
-84 -20 -72 0
-84 -22 -24 0
-84 -22 -28 0
-84 -22 -30 0
-84 -22 -32 0
-84 -22 -34 0
-84 -22 -36 0
-84 -22 -40 0
-84 -22 -42 0
-84 -22 -44 0
-84 -22 -46 0
-84 -22 -50 0
-84 -22 -52 0
-84 -22 -54 0
-84 -22 -58 0
-84 -22 -60 0
-84 -22 -64 0
-84 -22 -66 0
-84 -22 -72 0
-84 -24 -28 0
-84 -24 -30 0
-84 -24 -32 0
-84 -24 -34 0
-84 -24 -36 0
-84 -24 -40 0
-84 -24 -42 0
-84 -24 -44 0
-84 -24 -46 0
-84 -24 -50 0
-84 -24 -52 0
-84 -24 -54 0
-84 -24 -58 0
-84 -24 -60 0
-84 -24 -64 0
-84 -24 -66 0
-84 -24 -72 0
-84 -28 -30 0
-84 -28 -32 0
-84 -28 -34 0
-84 -28 -36 0
-84 -28 -40 0
-84 -28 -42 0
-84 -28 -44 0
-84 -28 -46 0
-84 -28 -50 0
-84 -28 -52 0
-84 -28 -54 0
-84 -28 -58 0
-84 -28 -60 0
-84 -28 -64 0
-84 -28 -66 0
-84 -28 -72 0
-84 -30 -32 0
-84 -30 -34 0
-84 -30 -36 0
-84 -30 -40 0
-84 -30 -42 0
-84 -30 -44 0
-84 -30 -46 0
-84 -30 -50 0
-84 -30 -52 0
-84 -30 -54 0
-84 -30 -58 0
-84 -30 -60 0
-84 -30 -64 0
-84 -30 -66 0
-84 -30 -72 0
-84 -32 -34 0
-84 -32 -36 0
-84 -32 -40 0
-84 -32 -42 0
-84 -32 -44 0
-84 -32 -46 0
-84 -32 -50 0
-84 -32 -52 0
-84 -32 -54 0
-84 -32 -58 0
-84 -32 -60 0
-84 -32 -64 0
-84 -32 -66 0
-84 -32 -72 0
-84 -34 -36 0
-84 -34 -40 0
-84 -34 -42 0
-84 -34 -44 0
-84 -34 -46 0
-84 -34 -50 0
-84 -34 -52 0
-84 -34 -54 0
-84 -34 -58 0
-84 -34 -60 0
-84 -34 -64 0
-84 -34 -66 0
-84 -34 -72 0
-84 -36 -40 0
-84 -36 -42 0
-84 -36 -44 0
-84 -36 -46 0
-84 -36 -50 0
-84 -36 -52 0
-84 -36 -54 0
-84 -36 -58 0
-84 -36 -60 0
-84 -36 -64 0
-84 -36 -66 0
-84 -36 -72 0
-84 -40 -42 0
-84 -40 -44 0
-84 -40 -46 0
-84 -40 -50 0
-84 -40 -52 0
-84 -40 -54 0
-84 -40 -58 0
-84 -40 -60 0
-84 -40 -64 0
-84 -40 -66 0
-84 -40 -72 0
-84 -42 -44 0
-84 -42 -46 0
-84 -42 -50 0
-84 -42 -52 0
-84 -42 -54 0
-84 -42 -58 0
-84 -42 -60 0
-84 -42 -64 0
-84 -42 -66 0
-84 -42 -72 0
-84 -44 -46 0
-84 -44 -50 0
-84 -44 -52 0
-84 -44 -54 0
-84 -44 -58 0
-84 -44 -60 0
-84 -44 -64 0
-84 -44 -66 0
-84 -44 -72 0
-84 -46 -50 0
-84 -46 -52 0
-84 -46 -54 0
-84 -46 -58 0
-84 -46 -60 0
-84 -46 -64 0
-84 -46 -66 0
-84 -46 -72 0
-84 -50 -52 0
-84 -50 -54 0
-84 -50 -58 0
-84 -50 -60 0
-84 -50 -64 0
-84 -50 -66 0
-84 -50 -72 0
-84 -52 -54 0
-84 -52 -58 0
-84 -52 -60 0
-84 -52 -64 0
-84 -52 -66 0
-84 -52 -72 0
-84 -54 -58 0
-84 -54 -60 0
-84 -54 -64 0
-84 -54 -66 0
-84 -54 -72 0
-84 -58 -60 0
-84 -58 -64 0
-84 -58 -66 0
-84 -58 -72 0
-84 -60 -64 0
-84 -60 -66 0
-84 -60 -72 0
-84 -64 -66 0
-84 -64 -72 0
-84 -66 -72 0
-13 -14 0
85 86 0
-85 17 19 21 23 25 29 31 33 35 37 41 43 45 47 51 53 55 59 61 65 69 0
-85 -17 -19 0
-85 -17 -21 0
-85 -17 -23 0
-85 -17 -25 0
-85 -17 -29 0
-85 -17 -31 0
-85 -17 -33 0
-85 -17 -35 0
-85 -17 -37 0
-85 -17 -41 0
-85 -17 -43 0
-85 -17 -45 0
-85 -17 -47 0
-85 -17 -51 0
-85 -17 -53 0
-85 -17 -55 0
-85 -17 -59 0
-85 -17 -61 0
-85 -17 -65 0
-85 -17 -69 0
-85 -19 -21 0
-85 -19 -23 0
-85 -19 -25 0
-85 -19 -29 0
-85 -19 -31 0
-85 -19 -33 0
-85 -19 -35 0
-85 -19 -37 0
-85 -19 -41 0
-85 -19 -43 0
-85 -19 -45 0
-85 -19 -47 0
-85 -19 -51 0
-85 -19 -53 0
-85 -19 -55 0
-85 -19 -59 0
-85 -19 -61 0
-85 -19 -65 0
-85 -19 -69 0
-85 -21 -23 0
-85 -21 -25 0
-85 -21 -29 0
-85 -21 -31 0
-85 -21 -33 0
-85 -21 -35 0
-85 -21 -37 0
-85 -21 -41 0
-85 -21 -43 0
-85 -21 -45 0
-85 -21 -47 0
-85 -21 -51 0
-85 -21 -53 0
-85 -21 -55 0
-85 -21 -59 0
-85 -21 -61 0
-85 -21 -65 0
-85 -21 -69 0
-85 -23 -25 0
-85 -23 -29 0
-85 -23 -31 0
-85 -23 -33 0
-85 -23 -35 0
-85 -23 -37 0
-85 -23 -41 0
-85 -23 -43 0
-85 -23 -45 0
-85 -23 -47 0
-85 -23 -51 0
-85 -23 -53 0
-85 -23 -55 0
-85 -23 -59 0
-85 -23 -61 0
-85 -23 -65 0
-85 -23 -69 0
-85 -25 -29 0
-85 -25 -31 0
-85 -25 -33 0
-85 -25 -35 0
-85 -25 -37 0
-85 -25 -41 0
-85 -25 -43 0
-85 -25 -45 0
-85 -25 -47 0
-85 -25 -51 0
-85 -25 -53 0
-85 -25 -55 0
-85 -25 -59 0
-85 -25 -61 0
-85 -25 -65 0
-85 -25 -69 0
-85 -29 -31 0
-85 -29 -33 0
-85 -29 -35 0
-85 -29 -37 0
-85 -29 -41 0
-85 -29 -43 0
-85 -29 -45 0
-85 -29 -47 0
-85 -29 -51 0
-85 -29 -53 0
-85 -29 -55 0
-85 -29 -59 0
-85 -29 -61 0
-85 -29 -65 0
-85 -29 -69 0
-85 -31 -33 0
-85 -31 -35 0
-85 -31 -37 0
-85 -31 -41 0
-85 -31 -43 0
-85 -31 -45 0
-85 -31 -47 0
-85 -31 -51 0
-85 -31 -53 0
-85 -31 -55 0
-85 -31 -59 0
-85 -31 -61 0
-85 -31 -65 0
-85 -31 -69 0
-85 -33 -35 0
-85 -33 -37 0
-85 -33 -41 0
-85 -33 -43 0
-85 -33 -45 0
-85 -33 -47 0
-85 -33 -51 0
-85 -33 -53 0
-85 -33 -55 0
-85 -33 -59 0
-85 -33 -61 0
-85 -33 -65 0
-85 -33 -69 0
-85 -35 -37 0
-85 -35 -41 0
-85 -35 -43 0
-85 -35 -45 0
-85 -35 -47 0
-85 -35 -51 0
-85 -35 -53 0
-85 -35 -55 0
-85 -35 -59 0
-85 -35 -61 0
-85 -35 -65 0
-85 -35 -69 0
-85 -37 -41 0
-85 -37 -43 0
-85 -37 -45 0
-85 -37 -47 0
-85 -37 -51 0
-85 -37 -53 0
-85 -37 -55 0
-85 -37 -59 0
-85 -37 -61 0
-85 -37 -65 0
-85 -37 -69 0
-85 -41 -43 0
-85 -41 -45 0
-85 -41 -47 0
-85 -41 -51 0
-85 -41 -53 0
-85 -41 -55 0
-85 -41 -59 0
-85 -41 -61 0
-85 -41 -65 0
-85 -41 -69 0
-85 -43 -45 0
-85 -43 -47 0
-85 -43 -51 0
-85 -43 -53 0
-85 -43 -55 0
-85 -43 -59 0
-85 -43 -61 0
-85 -43 -65 0
-85 -43 -69 0
-85 -45 -47 0
-85 -45 -51 0
-85 -45 -53 0
-85 -45 -55 0
-85 -45 -59 0
-85 -45 -61 0
-85 -45 -65 0
-85 -45 -69 0
-85 -47 -51 0
-85 -47 -53 0
-85 -47 -55 0
-85 -47 -59 0
-85 -47 -61 0
-85 -47 -65 0
-85 -47 -69 0
-85 -51 -53 0
-85 -51 -55 0
-85 -51 -59 0
-85 -51 -61 0
-85 -51 -65 0
-85 -51 -69 0
-85 -53 -55 0
-85 -53 -59 0
-85 -53 -61 0
-85 -53 -65 0
-85 -53 -69 0
-85 -55 -59 0
-85 -55 -61 0
-85 -55 -65 0
-85 -55 -69 0
-85 -59 -61 0
-85 -59 -65 0
-85 -59 -69 0
-85 -61 -65 0
-85 -61 -69 0
-85 -65 -69 0
-86 18 20 22 24 26 30 32 34 36 38 42 44 46 48 52 54 56 60 62 66 70 0
-86 -18 -20 0
-86 -18 -22 0
-86 -18 -24 0
-86 -18 -26 0
-86 -18 -30 0
-86 -18 -32 0
-86 -18 -34 0
-86 -18 -36 0
-86 -18 -38 0
-86 -18 -42 0
-86 -18 -44 0
-86 -18 -46 0
-86 -18 -48 0
-86 -18 -52 0
-86 -18 -54 0
-86 -18 -56 0
-86 -18 -60 0
-86 -18 -62 0
-86 -18 -66 0
-86 -18 -70 0
-86 -20 -22 0
-86 -20 -24 0
-86 -20 -26 0
-86 -20 -30 0
-86 -20 -32 0
-86 -20 -34 0
-86 -20 -36 0
-86 -20 -38 0
-86 -20 -42 0
-86 -20 -44 0
-86 -20 -46 0
-86 -20 -48 0
-86 -20 -52 0
-86 -20 -54 0
-86 -20 -56 0
-86 -20 -60 0
-86 -20 -62 0
-86 -20 -66 0
-86 -20 -70 0
-86 -22 -24 0
-86 -22 -26 0
-86 -22 -30 0
-86 -22 -32 0
-86 -22 -34 0
-86 -22 -36 0
-86 -22 -38 0
-86 -22 -42 0
-86 -22 -44 0
-86 -22 -46 0
-86 -22 -48 0
-86 -22 -52 0
-86 -22 -54 0
-86 -22 -56 0
-86 -22 -60 0
-86 -22 -62 0
-86 -22 -66 0
-86 -22 -70 0
-86 -24 -26 0
-86 -24 -30 0
-86 -24 -32 0
-86 -24 -34 0
-86 -24 -36 0
-86 -24 -38 0
-86 -24 -42 0
-86 -24 -44 0
-86 -24 -46 0
-86 -24 -48 0
-86 -24 -52 0
-86 -24 -54 0
-86 -24 -56 0
-86 -24 -60 0
-86 -24 -62 0
-86 -24 -66 0
-86 -24 -70 0
-86 -26 -30 0
-86 -26 -32 0
-86 -26 -34 0
-86 -26 -36 0
-86 -26 -38 0
-86 -26 -42 0
-86 -26 -44 0
-86 -26 -46 0
-86 -26 -48 0
-86 -26 -52 0
-86 -26 -54 0
-86 -26 -56 0
-86 -26 -60 0
-86 -26 -62 0
-86 -26 -66 0
-86 -26 -70 0
-86 -30 -32 0
-86 -30 -34 0
-86 -30 -36 0
-86 -30 -38 0
-86 -30 -42 0
-86 -30 -44 0
-86 -30 -46 0
-86 -30 -48 0
-86 -30 -52 0
-86 -30 -54 0
-86 -30 -56 0
-86 -30 -60 0
-86 -30 -62 0
-86 -30 -66 0
-86 -30 -70 0
-86 -32 -34 0
-86 -32 -36 0
-86 -32 -38 0
-86 -32 -42 0
-86 -32 -44 0
-86 -32 -46 0
-86 -32 -48 0
-86 -32 -52 0
-86 -32 -54 0
-86 -32 -56 0
-86 -32 -60 0
-86 -32 -62 0
-86 -32 -66 0
-86 -32 -70 0
-86 -34 -36 0
-86 -34 -38 0
-86 -34 -42 0
-86 -34 -44 0
-86 -34 -46 0
-86 -34 -48 0
-86 -34 -52 0
-86 -34 -54 0
-86 -34 -56 0
-86 -34 -60 0
-86 -34 -62 0
-86 -34 -66 0
-86 -34 -70 0
-86 -36 -38 0
-86 -36 -42 0
-86 -36 -44 0
-86 -36 -46 0
-86 -36 -48 0
-86 -36 -52 0
-86 -36 -54 0
-86 -36 -56 0
-86 -36 -60 0
-86 -36 -62 0
-86 -36 -66 0
-86 -36 -70 0
-86 -38 -42 0
-86 -38 -44 0
-86 -38 -46 0
-86 -38 -48 0
-86 -38 -52 0
-86 -38 -54 0
-86 -38 -56 0
-86 -38 -60 0
-86 -38 -62 0
-86 -38 -66 0
-86 -38 -70 0
-86 -42 -44 0
-86 -42 -46 0
-86 -42 -48 0
-86 -42 -52 0
-86 -42 -54 0
-86 -42 -56 0
-86 -42 -60 0
-86 -42 -62 0
-86 -42 -66 0
-86 -42 -70 0
-86 -44 -46 0
-86 -44 -48 0
-86 -44 -52 0
-86 -44 -54 0
-86 -44 -56 0
-86 -44 -60 0
-86 -44 -62 0
-86 -44 -66 0
-86 -44 -70 0
-86 -46 -48 0
-86 -46 -52 0
-86 -46 -54 0
-86 -46 -56 0
-86 -46 -60 0
-86 -46 -62 0
-86 -46 -66 0
-86 -46 -70 0
-86 -48 -52 0
-86 -48 -54 0
-86 -48 -56 0
-86 -48 -60 0
-86 -48 -62 0
-86 -48 -66 0
-86 -48 -70 0
-86 -52 -54 0
-86 -52 -56 0
-86 -52 -60 0
-86 -52 -62 0
-86 -52 -66 0
-86 -52 -70 0
-86 -54 -56 0
-86 -54 -60 0
-86 -54 -62 0
-86 -54 -66 0
-86 -54 -70 0
-86 -56 -60 0
-86 -56 -62 0
-86 -56 -66 0
-86 -56 -70 0
-86 -60 -62 0
-86 -60 -66 0
-86 -60 -70 0
-86 -62 -66 0
-86 -62 -70 0
-86 -66 -70 0
-15 -16 0
87 88 0
-87 17 19 21 23 25 27 31 33 35 37 39 43 45 47 49 53 55 57 61 63 67 0
-87 -17 -19 0
-87 -17 -21 0
-87 -17 -23 0
-87 -17 -25 0
-87 -17 -27 0
-87 -17 -31 0
-87 -17 -33 0
-87 -17 -35 0
-87 -17 -37 0
-87 -17 -39 0
-87 -17 -43 0
-87 -17 -45 0
-87 -17 -47 0
-87 -17 -49 0
-87 -17 -53 0
-87 -17 -55 0
-87 -17 -57 0
-87 -17 -61 0
-87 -17 -63 0
-87 -17 -67 0
-87 -19 -21 0
-87 -19 -23 0
-87 -19 -25 0
-87 -19 -27 0
-87 -19 -31 0
-87 -19 -33 0
-87 -19 -35 0
-87 -19 -37 0
-87 -19 -39 0
-87 -19 -43 0
-87 -19 -45 0
-87 -19 -47 0
-87 -19 -49 0
-87 -19 -53 0
-87 -19 -55 0
-87 -19 -57 0
-87 -19 -61 0
-87 -19 -63 0
-87 -19 -67 0
-87 -21 -23 0
-87 -21 -25 0
-87 -21 -27 0
-87 -21 -31 0
-87 -21 -33 0
-87 -21 -35 0
-87 -21 -37 0
-87 -21 -39 0
-87 -21 -43 0
-87 -21 -45 0
-87 -21 -47 0
-87 -21 -49 0
-87 -21 -53 0
-87 -21 -55 0
-87 -21 -57 0
-87 -21 -61 0
-87 -21 -63 0
-87 -21 -67 0
-87 -23 -25 0
-87 -23 -27 0
-87 -23 -31 0
-87 -23 -33 0
-87 -23 -35 0
-87 -23 -37 0
-87 -23 -39 0
-87 -23 -43 0
-87 -23 -45 0
-87 -23 -47 0
-87 -23 -49 0
-87 -23 -53 0
-87 -23 -55 0
-87 -23 -57 0
-87 -23 -61 0
-87 -23 -63 0
-87 -23 -67 0
-87 -25 -27 0
-87 -25 -31 0
-87 -25 -33 0
-87 -25 -35 0
-87 -25 -37 0
-87 -25 -39 0
-87 -25 -43 0
-87 -25 -45 0
-87 -25 -47 0
-87 -25 -49 0
-87 -25 -53 0
-87 -25 -55 0
-87 -25 -57 0
-87 -25 -61 0
-87 -25 -63 0
-87 -25 -67 0
-87 -27 -31 0
-87 -27 -33 0
-87 -27 -35 0
-87 -27 -37 0
-87 -27 -39 0
-87 -27 -43 0
-87 -27 -45 0
-87 -27 -47 0
-87 -27 -49 0
-87 -27 -53 0
-87 -27 -55 0
-87 -27 -57 0
-87 -27 -61 0
-87 -27 -63 0
-87 -27 -67 0
-87 -31 -33 0
-87 -31 -35 0
-87 -31 -37 0
-87 -31 -39 0
-87 -31 -43 0
-87 -31 -45 0
-87 -31 -47 0
-87 -31 -49 0
-87 -31 -53 0
-87 -31 -55 0
-87 -31 -57 0
-87 -31 -61 0
-87 -31 -63 0
-87 -31 -67 0
-87 -33 -35 0
-87 -33 -37 0
-87 -33 -39 0
-87 -33 -43 0
-87 -33 -45 0
-87 -33 -47 0
-87 -33 -49 0
-87 -33 -53 0
-87 -33 -55 0
-87 -33 -57 0
-87 -33 -61 0
-87 -33 -63 0
-87 -33 -67 0
-87 -35 -37 0
-87 -35 -39 0
-87 -35 -43 0
-87 -35 -45 0
-87 -35 -47 0
-87 -35 -49 0
-87 -35 -53 0
-87 -35 -55 0
-87 -35 -57 0
-87 -35 -61 0
-87 -35 -63 0
-87 -35 -67 0
-87 -37 -39 0
-87 -37 -43 0
-87 -37 -45 0
-87 -37 -47 0
-87 -37 -49 0
-87 -37 -53 0
-87 -37 -55 0
-87 -37 -57 0
-87 -37 -61 0
-87 -37 -63 0
-87 -37 -67 0
-87 -39 -43 0
-87 -39 -45 0
-87 -39 -47 0
-87 -39 -49 0
-87 -39 -53 0
-87 -39 -55 0
-87 -39 -57 0
-87 -39 -61 0
-87 -39 -63 0
-87 -39 -67 0
-87 -43 -45 0
-87 -43 -47 0
-87 -43 -49 0
-87 -43 -53 0
-87 -43 -55 0
-87 -43 -57 0
-87 -43 -61 0
-87 -43 -63 0
-87 -43 -67 0
-87 -45 -47 0
-87 -45 -49 0
-87 -45 -53 0
-87 -45 -55 0
-87 -45 -57 0
-87 -45 -61 0
-87 -45 -63 0
-87 -45 -67 0
-87 -47 -49 0
-87 -47 -53 0
-87 -47 -55 0
-87 -47 -57 0
-87 -47 -61 0
-87 -47 -63 0
-87 -47 -67 0
-87 -49 -53 0
-87 -49 -55 0
-87 -49 -57 0
-87 -49 -61 0
-87 -49 -63 0
-87 -49 -67 0
-87 -53 -55 0
-87 -53 -57 0
-87 -53 -61 0
-87 -53 -63 0
-87 -53 -67 0
-87 -55 -57 0
-87 -55 -61 0
-87 -55 -63 0
-87 -55 -67 0
-87 -57 -61 0
-87 -57 -63 0
-87 -57 -67 0
-87 -61 -63 0
-87 -61 -67 0
-87 -63 -67 0
-88 18 20 22 24 26 28 32 34 36 38 40 44 46 48 50 54 56 58 62 64 68 0
-88 -18 -20 0
-88 -18 -22 0
-88 -18 -24 0
-88 -18 -26 0
-88 -18 -28 0
-88 -18 -32 0
-88 -18 -34 0
-88 -18 -36 0
-88 -18 -38 0
-88 -18 -40 0
-88 -18 -44 0
-88 -18 -46 0
-88 -18 -48 0
-88 -18 -50 0
-88 -18 -54 0
-88 -18 -56 0
-88 -18 -58 0
-88 -18 -62 0
-88 -18 -64 0
-88 -18 -68 0
-88 -20 -22 0
-88 -20 -24 0
-88 -20 -26 0
-88 -20 -28 0
-88 -20 -32 0
-88 -20 -34 0
-88 -20 -36 0
-88 -20 -38 0
-88 -20 -40 0
-88 -20 -44 0
-88 -20 -46 0
-88 -20 -48 0
-88 -20 -50 0
-88 -20 -54 0
-88 -20 -56 0
-88 -20 -58 0
-88 -20 -62 0
-88 -20 -64 0
-88 -20 -68 0
-88 -22 -24 0
-88 -22 -26 0
-88 -22 -28 0
-88 -22 -32 0
-88 -22 -34 0
-88 -22 -36 0
-88 -22 -38 0
-88 -22 -40 0
-88 -22 -44 0
-88 -22 -46 0
-88 -22 -48 0
-88 -22 -50 0
-88 -22 -54 0
-88 -22 -56 0
-88 -22 -58 0
-88 -22 -62 0
-88 -22 -64 0
-88 -22 -68 0
-88 -24 -26 0
-88 -24 -28 0
-88 -24 -32 0
-88 -24 -34 0
-88 -24 -36 0
-88 -24 -38 0
-88 -24 -40 0
-88 -24 -44 0
-88 -24 -46 0
-88 -24 -48 0
-88 -24 -50 0
-88 -24 -54 0
-88 -24 -56 0
-88 -24 -58 0
-88 -24 -62 0
-88 -24 -64 0
-88 -24 -68 0
-88 -26 -28 0
-88 -26 -32 0
-88 -26 -34 0
-88 -26 -36 0
-88 -26 -38 0
-88 -26 -40 0
-88 -26 -44 0
-88 -26 -46 0
-88 -26 -48 0
-88 -26 -50 0
-88 -26 -54 0
-88 -26 -56 0
-88 -26 -58 0
-88 -26 -62 0
-88 -26 -64 0
-88 -26 -68 0
-88 -28 -32 0
-88 -28 -34 0
-88 -28 -36 0
-88 -28 -38 0
-88 -28 -40 0
-88 -28 -44 0
-88 -28 -46 0
-88 -28 -48 0
-88 -28 -50 0
-88 -28 -54 0
-88 -28 -56 0
-88 -28 -58 0
-88 -28 -62 0
-88 -28 -64 0
-88 -28 -68 0
-88 -32 -34 0
-88 -32 -36 0
-88 -32 -38 0
-88 -32 -40 0
-88 -32 -44 0
-88 -32 -46 0
-88 -32 -48 0
-88 -32 -50 0
-88 -32 -54 0
-88 -32 -56 0
-88 -32 -58 0
-88 -32 -62 0
-88 -32 -64 0
-88 -32 -68 0
-88 -34 -36 0
-88 -34 -38 0
-88 -34 -40 0
-88 -34 -44 0
-88 -34 -46 0
-88 -34 -48 0
-88 -34 -50 0
-88 -34 -54 0
-88 -34 -56 0
-88 -34 -58 0
-88 -34 -62 0
-88 -34 -64 0
-88 -34 -68 0
-88 -36 -38 0
-88 -36 -40 0
-88 -36 -44 0
-88 -36 -46 0
-88 -36 -48 0
-88 -36 -50 0
-88 -36 -54 0
-88 -36 -56 0
-88 -36 -58 0
-88 -36 -62 0
-88 -36 -64 0
-88 -36 -68 0
-88 -38 -40 0
-88 -38 -44 0
-88 -38 -46 0
-88 -38 -48 0
-88 -38 -50 0
-88 -38 -54 0
-88 -38 -56 0
-88 -38 -58 0
-88 -38 -62 0
-88 -38 -64 0
-88 -38 -68 0
-88 -40 -44 0
-88 -40 -46 0
-88 -40 -48 0
-88 -40 -50 0
-88 -40 -54 0
-88 -40 -56 0
-88 -40 -58 0
-88 -40 -62 0
-88 -40 -64 0
-88 -40 -68 0
-88 -44 -46 0
-88 -44 -48 0
-88 -44 -50 0
-88 -44 -54 0
-88 -44 -56 0
-88 -44 -58 0
-88 -44 -62 0
-88 -44 -64 0
-88 -44 -68 0
-88 -46 -48 0
-88 -46 -50 0
-88 -46 -54 0
-88 -46 -56 0
-88 -46 -58 0
-88 -46 -62 0
-88 -46 -64 0
-88 -46 -68 0
-88 -48 -50 0
-88 -48 -54 0
-88 -48 -56 0
-88 -48 -58 0
-88 -48 -62 0
-88 -48 -64 0
-88 -48 -68 0
-88 -50 -54 0
-88 -50 -56 0
-88 -50 -58 0
-88 -50 -62 0
-88 -50 -64 0
-88 -50 -68 0
-88 -54 -56 0
-88 -54 -58 0
-88 -54 -62 0
-88 -54 -64 0
-88 -54 -68 0
-88 -56 -58 0
-88 -56 -62 0
-88 -56 -64 0
-88 -56 -68 0
-88 -58 -62 0
-88 -58 -64 0
-88 -58 -68 0
-88 -62 -64 0
-88 -62 -68 0
-88 -64 -68 0
-17 -18 0
89 90 0
-89 5 7 9 11 13 15 43 45 47 49 51 53 55 57 59 61 63 65 67 69 71 0
-89 -5 -7 0
-89 -5 -9 0
-89 -5 -11 0
-89 -5 -13 0
-89 -5 -15 0
-89 -5 -43 0
-89 -5 -45 0
-89 -5 -47 0
-89 -5 -49 0
-89 -5 -51 0
-89 -5 -53 0
-89 -5 -55 0
-89 -5 -57 0
-89 -5 -59 0
-89 -5 -61 0
-89 -5 -63 0
-89 -5 -65 0
-89 -5 -67 0
-89 -5 -69 0
-89 -5 -71 0
-89 -7 -9 0
-89 -7 -11 0
-89 -7 -13 0
-89 -7 -15 0
-89 -7 -43 0
-89 -7 -45 0
-89 -7 -47 0
-89 -7 -49 0
-89 -7 -51 0
-89 -7 -53 0
-89 -7 -55 0
-89 -7 -57 0
-89 -7 -59 0
-89 -7 -61 0
-89 -7 -63 0
-89 -7 -65 0
-89 -7 -67 0
-89 -7 -69 0
-89 -7 -71 0
-89 -9 -11 0
-89 -9 -13 0
-89 -9 -15 0
-89 -9 -43 0
-89 -9 -45 0
-89 -9 -47 0
-89 -9 -49 0
-89 -9 -51 0
-89 -9 -53 0
-89 -9 -55 0
-89 -9 -57 0
-89 -9 -59 0
-89 -9 -61 0
-89 -9 -63 0
-89 -9 -65 0
-89 -9 -67 0
-89 -9 -69 0
-89 -9 -71 0
-89 -11 -13 0
-89 -11 -15 0
-89 -11 -43 0
-89 -11 -45 0
-89 -11 -47 0
-89 -11 -49 0
-89 -11 -51 0
-89 -11 -53 0
-89 -11 -55 0
-89 -11 -57 0
-89 -11 -59 0
-89 -11 -61 0
-89 -11 -63 0
-89 -11 -65 0
-89 -11 -67 0
-89 -11 -69 0
-89 -11 -71 0
-89 -13 -15 0
-89 -13 -43 0
-89 -13 -45 0
-89 -13 -47 0
-89 -13 -49 0
-89 -13 -51 0
-89 -13 -53 0
-89 -13 -55 0
-89 -13 -57 0
-89 -13 -59 0
-89 -13 -61 0
-89 -13 -63 0
-89 -13 -65 0
-89 -13 -67 0
-89 -13 -69 0
-89 -13 -71 0
-89 -15 -43 0
-89 -15 -45 0
-89 -15 -47 0
-89 -15 -49 0
-89 -15 -51 0
-89 -15 -53 0
-89 -15 -55 0
-89 -15 -57 0
-89 -15 -59 0
-89 -15 -61 0
-89 -15 -63 0
-89 -15 -65 0
-89 -15 -67 0
-89 -15 -69 0
-89 -15 -71 0
-89 -43 -45 0
-89 -43 -47 0
-89 -43 -49 0
-89 -43 -51 0
-89 -43 -53 0
-89 -43 -55 0
-89 -43 -57 0
-89 -43 -59 0
-89 -43 -61 0
-89 -43 -63 0
-89 -43 -65 0
-89 -43 -67 0
-89 -43 -69 0
-89 -43 -71 0
-89 -45 -47 0
-89 -45 -49 0
-89 -45 -51 0
-89 -45 -53 0
-89 -45 -55 0
-89 -45 -57 0
-89 -45 -59 0
-89 -45 -61 0
-89 -45 -63 0
-89 -45 -65 0
-89 -45 -67 0
-89 -45 -69 0
-89 -45 -71 0
-89 -47 -49 0
-89 -47 -51 0
-89 -47 -53 0
-89 -47 -55 0
-89 -47 -57 0
-89 -47 -59 0
-89 -47 -61 0
-89 -47 -63 0
-89 -47 -65 0
-89 -47 -67 0
-89 -47 -69 0
-89 -47 -71 0
-89 -49 -51 0
-89 -49 -53 0
-89 -49 -55 0
-89 -49 -57 0
-89 -49 -59 0
-89 -49 -61 0
-89 -49 -63 0
-89 -49 -65 0
-89 -49 -67 0
-89 -49 -69 0
-89 -49 -71 0
-89 -51 -53 0
-89 -51 -55 0
-89 -51 -57 0
-89 -51 -59 0
-89 -51 -61 0
-89 -51 -63 0
-89 -51 -65 0
-89 -51 -67 0
-89 -51 -69 0
-89 -51 -71 0
-89 -53 -55 0
-89 -53 -57 0
-89 -53 -59 0
-89 -53 -61 0
-89 -53 -63 0
-89 -53 -65 0
-89 -53 -67 0
-89 -53 -69 0
-89 -53 -71 0
-89 -55 -57 0
-89 -55 -59 0
-89 -55 -61 0
-89 -55 -63 0
-89 -55 -65 0
-89 -55 -67 0
-89 -55 -69 0
-89 -55 -71 0
-89 -57 -59 0
-89 -57 -61 0
-89 -57 -63 0
-89 -57 -65 0
-89 -57 -67 0
-89 -57 -69 0
-89 -57 -71 0
-89 -59 -61 0
-89 -59 -63 0
-89 -59 -65 0
-89 -59 -67 0
-89 -59 -69 0
-89 -59 -71 0
-89 -61 -63 0
-89 -61 -65 0
-89 -61 -67 0
-89 -61 -69 0
-89 -61 -71 0
-89 -63 -65 0
-89 -63 -67 0
-89 -63 -69 0
-89 -63 -71 0
-89 -65 -67 0
-89 -65 -69 0
-89 -65 -71 0
-89 -67 -69 0
-89 -67 -71 0
-89 -69 -71 0
-90 6 8 10 12 14 16 44 46 48 50 52 54 56 58 60 62 64 66 68 70 72 0
-90 -6 -8 0
-90 -6 -10 0
-90 -6 -12 0
-90 -6 -14 0
-90 -6 -16 0
-90 -6 -44 0
-90 -6 -46 0
-90 -6 -48 0
-90 -6 -50 0
-90 -6 -52 0
-90 -6 -54 0
-90 -6 -56 0
-90 -6 -58 0
-90 -6 -60 0
-90 -6 -62 0
-90 -6 -64 0
-90 -6 -66 0
-90 -6 -68 0
-90 -6 -70 0
-90 -6 -72 0
-90 -8 -10 0
-90 -8 -12 0
-90 -8 -14 0
-90 -8 -16 0
-90 -8 -44 0
-90 -8 -46 0
-90 -8 -48 0
-90 -8 -50 0
-90 -8 -52 0
-90 -8 -54 0
-90 -8 -56 0
-90 -8 -58 0
-90 -8 -60 0
-90 -8 -62 0
-90 -8 -64 0
-90 -8 -66 0
-90 -8 -68 0
-90 -8 -70 0
-90 -8 -72 0
-90 -10 -12 0
-90 -10 -14 0
-90 -10 -16 0
-90 -10 -44 0
-90 -10 -46 0
-90 -10 -48 0
-90 -10 -50 0
-90 -10 -52 0
-90 -10 -54 0
-90 -10 -56 0
-90 -10 -58 0
-90 -10 -60 0
-90 -10 -62 0
-90 -10 -64 0
-90 -10 -66 0
-90 -10 -68 0
-90 -10 -70 0
-90 -10 -72 0
-90 -12 -14 0
-90 -12 -16 0
-90 -12 -44 0
-90 -12 -46 0
-90 -12 -48 0
-90 -12 -50 0
-90 -12 -52 0
-90 -12 -54 0
-90 -12 -56 0
-90 -12 -58 0
-90 -12 -60 0
-90 -12 -62 0
-90 -12 -64 0
-90 -12 -66 0
-90 -12 -68 0
-90 -12 -70 0
-90 -12 -72 0
-90 -14 -16 0
-90 -14 -44 0
-90 -14 -46 0
-90 -14 -48 0
-90 -14 -50 0
-90 -14 -52 0
-90 -14 -54 0
-90 -14 -56 0
-90 -14 -58 0
-90 -14 -60 0
-90 -14 -62 0
-90 -14 -64 0
-90 -14 -66 0
-90 -14 -68 0
-90 -14 -70 0
-90 -14 -72 0
-90 -16 -44 0
-90 -16 -46 0
-90 -16 -48 0
-90 -16 -50 0
-90 -16 -52 0
-90 -16 -54 0
-90 -16 -56 0
-90 -16 -58 0
-90 -16 -60 0
-90 -16 -62 0
-90 -16 -64 0
-90 -16 -66 0
-90 -16 -68 0
-90 -16 -70 0
-90 -16 -72 0
-90 -44 -46 0
-90 -44 -48 0
-90 -44 -50 0
-90 -44 -52 0
-90 -44 -54 0
-90 -44 -56 0
-90 -44 -58 0
-90 -44 -60 0
-90 -44 -62 0
-90 -44 -64 0
-90 -44 -66 0
-90 -44 -68 0
-90 -44 -70 0
-90 -44 -72 0
-90 -46 -48 0
-90 -46 -50 0
-90 -46 -52 0
-90 -46 -54 0
-90 -46 -56 0
-90 -46 -58 0
-90 -46 -60 0
-90 -46 -62 0
-90 -46 -64 0
-90 -46 -66 0
-90 -46 -68 0
-90 -46 -70 0
-90 -46 -72 0
-90 -48 -50 0
-90 -48 -52 0
-90 -48 -54 0
-90 -48 -56 0
-90 -48 -58 0
-90 -48 -60 0
-90 -48 -62 0
-90 -48 -64 0
-90 -48 -66 0
-90 -48 -68 0
-90 -48 -70 0
-90 -48 -72 0
-90 -50 -52 0
-90 -50 -54 0
-90 -50 -56 0
-90 -50 -58 0
-90 -50 -60 0
-90 -50 -62 0
-90 -50 -64 0
-90 -50 -66 0
-90 -50 -68 0
-90 -50 -70 0
-90 -50 -72 0
-90 -52 -54 0
-90 -52 -56 0
-90 -52 -58 0
-90 -52 -60 0
-90 -52 -62 0
-90 -52 -64 0
-90 -52 -66 0
-90 -52 -68 0
-90 -52 -70 0
-90 -52 -72 0
-90 -54 -56 0
-90 -54 -58 0
-90 -54 -60 0
-90 -54 -62 0
-90 -54 -64 0
-90 -54 -66 0
-90 -54 -68 0
-90 -54 -70 0
-90 -54 -72 0
-90 -56 -58 0
-90 -56 -60 0
-90 -56 -62 0
-90 -56 -64 0
-90 -56 -66 0
-90 -56 -68 0
-90 -56 -70 0
-90 -56 -72 0
-90 -58 -60 0
-90 -58 -62 0
-90 -58 -64 0
-90 -58 -66 0
-90 -58 -68 0
-90 -58 -70 0
-90 -58 -72 0
-90 -60 -62 0
-90 -60 -64 0
-90 -60 -66 0
-90 -60 -68 0
-90 -60 -70 0
-90 -60 -72 0
-90 -62 -64 0
-90 -62 -66 0
-90 -62 -68 0
-90 -62 -70 0
-90 -62 -72 0
-90 -64 -66 0
-90 -64 -68 0
-90 -64 -70 0
-90 -64 -72 0
-90 -66 -68 0
-90 -66 -70 0
-90 -66 -72 0
-90 -68 -70 0
-90 -68 -72 0
-90 -70 -72 0
-19 -20 0
91 92 0
-91 3 7 9 11 13 15 33 35 37 39 41 53 55 57 59 61 63 65 67 69 71 0
-91 -3 -7 0
-91 -3 -9 0
-91 -3 -11 0
-91 -3 -13 0
-91 -3 -15 0
-91 -3 -33 0
-91 -3 -35 0
-91 -3 -37 0
-91 -3 -39 0
-91 -3 -41 0
-91 -3 -53 0
-91 -3 -55 0
-91 -3 -57 0
-91 -3 -59 0
-91 -3 -61 0
-91 -3 -63 0
-91 -3 -65 0
-91 -3 -67 0
-91 -3 -69 0
-91 -3 -71 0
-91 -7 -9 0
-91 -7 -11 0
-91 -7 -13 0
-91 -7 -15 0
-91 -7 -33 0
-91 -7 -35 0
-91 -7 -37 0
-91 -7 -39 0
-91 -7 -41 0
-91 -7 -53 0
-91 -7 -55 0
-91 -7 -57 0
-91 -7 -59 0
-91 -7 -61 0
-91 -7 -63 0
-91 -7 -65 0
-91 -7 -67 0
-91 -7 -69 0
-91 -7 -71 0
-91 -9 -11 0
-91 -9 -13 0
-91 -9 -15 0
-91 -9 -33 0
-91 -9 -35 0
-91 -9 -37 0
-91 -9 -39 0
-91 -9 -41 0
-91 -9 -53 0
-91 -9 -55 0
-91 -9 -57 0
-91 -9 -59 0
-91 -9 -61 0
-91 -9 -63 0
-91 -9 -65 0
-91 -9 -67 0
-91 -9 -69 0
-91 -9 -71 0
-91 -11 -13 0
-91 -11 -15 0
-91 -11 -33 0
-91 -11 -35 0
-91 -11 -37 0
-91 -11 -39 0
-91 -11 -41 0
-91 -11 -53 0
-91 -11 -55 0
-91 -11 -57 0
-91 -11 -59 0
-91 -11 -61 0
-91 -11 -63 0
-91 -11 -65 0
-91 -11 -67 0
-91 -11 -69 0
-91 -11 -71 0
-91 -13 -15 0
-91 -13 -33 0
-91 -13 -35 0
-91 -13 -37 0
-91 -13 -39 0
-91 -13 -41 0
-91 -13 -53 0
-91 -13 -55 0
-91 -13 -57 0
-91 -13 -59 0
-91 -13 -61 0
-91 -13 -63 0
-91 -13 -65 0
-91 -13 -67 0
-91 -13 -69 0
-91 -13 -71 0
-91 -15 -33 0
-91 -15 -35 0
-91 -15 -37 0
-91 -15 -39 0
-91 -15 -41 0
-91 -15 -53 0
-91 -15 -55 0
-91 -15 -57 0
-91 -15 -59 0
-91 -15 -61 0
-91 -15 -63 0
-91 -15 -65 0
-91 -15 -67 0
-91 -15 -69 0
-91 -15 -71 0
-91 -33 -35 0
-91 -33 -37 0
-91 -33 -39 0
-91 -33 -41 0
-91 -33 -53 0
-91 -33 -55 0
-91 -33 -57 0
-91 -33 -59 0
-91 -33 -61 0
-91 -33 -63 0
-91 -33 -65 0
-91 -33 -67 0
-91 -33 -69 0
-91 -33 -71 0
-91 -35 -37 0
-91 -35 -39 0
-91 -35 -41 0
-91 -35 -53 0
-91 -35 -55 0
-91 -35 -57 0
-91 -35 -59 0
-91 -35 -61 0
-91 -35 -63 0
-91 -35 -65 0
-91 -35 -67 0
-91 -35 -69 0
-91 -35 -71 0
-91 -37 -39 0
-91 -37 -41 0
-91 -37 -53 0
-91 -37 -55 0
-91 -37 -57 0
-91 -37 -59 0
-91 -37 -61 0
-91 -37 -63 0
-91 -37 -65 0
-91 -37 -67 0
-91 -37 -69 0
-91 -37 -71 0
-91 -39 -41 0
-91 -39 -53 0
-91 -39 -55 0
-91 -39 -57 0
-91 -39 -59 0
-91 -39 -61 0
-91 -39 -63 0
-91 -39 -65 0
-91 -39 -67 0
-91 -39 -69 0
-91 -39 -71 0
-91 -41 -53 0
-91 -41 -55 0
-91 -41 -57 0
-91 -41 -59 0
-91 -41 -61 0
-91 -41 -63 0
-91 -41 -65 0
-91 -41 -67 0
-91 -41 -69 0
-91 -41 -71 0
-91 -53 -55 0
-91 -53 -57 0
-91 -53 -59 0
-91 -53 -61 0
-91 -53 -63 0
-91 -53 -65 0
-91 -53 -67 0
-91 -53 -69 0
-91 -53 -71 0
-91 -55 -57 0
-91 -55 -59 0
-91 -55 -61 0
-91 -55 -63 0
-91 -55 -65 0
-91 -55 -67 0
-91 -55 -69 0
-91 -55 -71 0
-91 -57 -59 0
-91 -57 -61 0
-91 -57 -63 0
-91 -57 -65 0
-91 -57 -67 0
-91 -57 -69 0
-91 -57 -71 0
-91 -59 -61 0
-91 -59 -63 0
-91 -59 -65 0
-91 -59 -67 0
-91 -59 -69 0
-91 -59 -71 0
-91 -61 -63 0
-91 -61 -65 0
-91 -61 -67 0
-91 -61 -69 0
-91 -61 -71 0
-91 -63 -65 0
-91 -63 -67 0
-91 -63 -69 0
-91 -63 -71 0
-91 -65 -67 0
-91 -65 -69 0
-91 -65 -71 0
-91 -67 -69 0
-91 -67 -71 0
-91 -69 -71 0
-92 4 8 10 12 14 16 34 36 38 40 42 54 56 58 60 62 64 66 68 70 72 0
-92 -4 -8 0
-92 -4 -10 0
-92 -4 -12 0
-92 -4 -14 0
-92 -4 -16 0
-92 -4 -34 0
-92 -4 -36 0
-92 -4 -38 0
-92 -4 -40 0
-92 -4 -42 0
-92 -4 -54 0
-92 -4 -56 0
-92 -4 -58 0
-92 -4 -60 0
-92 -4 -62 0
-92 -4 -64 0
-92 -4 -66 0
-92 -4 -68 0
-92 -4 -70 0
-92 -4 -72 0
-92 -8 -10 0
-92 -8 -12 0
-92 -8 -14 0
-92 -8 -16 0
-92 -8 -34 0
-92 -8 -36 0
-92 -8 -38 0
-92 -8 -40 0
-92 -8 -42 0
-92 -8 -54 0
-92 -8 -56 0
-92 -8 -58 0
-92 -8 -60 0
-92 -8 -62 0
-92 -8 -64 0
-92 -8 -66 0
-92 -8 -68 0
-92 -8 -70 0
-92 -8 -72 0
-92 -10 -12 0
-92 -10 -14 0
-92 -10 -16 0
-92 -10 -34 0
-92 -10 -36 0
-92 -10 -38 0
-92 -10 -40 0
-92 -10 -42 0
-92 -10 -54 0
-92 -10 -56 0
-92 -10 -58 0
-92 -10 -60 0
-92 -10 -62 0
-92 -10 -64 0
-92 -10 -66 0
-92 -10 -68 0
-92 -10 -70 0
-92 -10 -72 0
-92 -12 -14 0
-92 -12 -16 0
-92 -12 -34 0
-92 -12 -36 0
-92 -12 -38 0
-92 -12 -40 0
-92 -12 -42 0
-92 -12 -54 0
-92 -12 -56 0
-92 -12 -58 0
-92 -12 -60 0
-92 -12 -62 0
-92 -12 -64 0
-92 -12 -66 0
-92 -12 -68 0
-92 -12 -70 0
-92 -12 -72 0
-92 -14 -16 0
-92 -14 -34 0
-92 -14 -36 0
-92 -14 -38 0
-92 -14 -40 0
-92 -14 -42 0
-92 -14 -54 0
-92 -14 -56 0
-92 -14 -58 0
-92 -14 -60 0
-92 -14 -62 0
-92 -14 -64 0
-92 -14 -66 0
-92 -14 -68 0
-92 -14 -70 0
-92 -14 -72 0
-92 -16 -34 0
-92 -16 -36 0
-92 -16 -38 0
-92 -16 -40 0
-92 -16 -42 0
-92 -16 -54 0
-92 -16 -56 0
-92 -16 -58 0
-92 -16 -60 0
-92 -16 -62 0
-92 -16 -64 0
-92 -16 -66 0
-92 -16 -68 0
-92 -16 -70 0
-92 -16 -72 0
-92 -34 -36 0
-92 -34 -38 0
-92 -34 -40 0
-92 -34 -42 0
-92 -34 -54 0
-92 -34 -56 0
-92 -34 -58 0
-92 -34 -60 0
-92 -34 -62 0
-92 -34 -64 0
-92 -34 -66 0
-92 -34 -68 0
-92 -34 -70 0
-92 -34 -72 0
-92 -36 -38 0
-92 -36 -40 0
-92 -36 -42 0
-92 -36 -54 0
-92 -36 -56 0
-92 -36 -58 0
-92 -36 -60 0
-92 -36 -62 0
-92 -36 -64 0
-92 -36 -66 0
-92 -36 -68 0
-92 -36 -70 0
-92 -36 -72 0
-92 -38 -40 0
-92 -38 -42 0
-92 -38 -54 0
-92 -38 -56 0
-92 -38 -58 0
-92 -38 -60 0
-92 -38 -62 0
-92 -38 -64 0
-92 -38 -66 0
-92 -38 -68 0
-92 -38 -70 0
-92 -38 -72 0
-92 -40 -42 0
-92 -40 -54 0
-92 -40 -56 0
-92 -40 -58 0
-92 -40 -60 0
-92 -40 -62 0
-92 -40 -64 0
-92 -40 -66 0
-92 -40 -68 0
-92 -40 -70 0
-92 -40 -72 0
-92 -42 -54 0
-92 -42 -56 0
-92 -42 -58 0
-92 -42 -60 0
-92 -42 -62 0
-92 -42 -64 0
-92 -42 -66 0
-92 -42 -68 0
-92 -42 -70 0
-92 -42 -72 0
-92 -54 -56 0
-92 -54 -58 0
-92 -54 -60 0
-92 -54 -62 0
-92 -54 -64 0
-92 -54 -66 0
-92 -54 -68 0
-92 -54 -70 0
-92 -54 -72 0
-92 -56 -58 0
-92 -56 -60 0
-92 -56 -62 0
-92 -56 -64 0
-92 -56 -66 0
-92 -56 -68 0
-92 -56 -70 0
-92 -56 -72 0
-92 -58 -60 0
-92 -58 -62 0
-92 -58 -64 0
-92 -58 -66 0
-92 -58 -68 0
-92 -58 -70 0
-92 -58 -72 0
-92 -60 -62 0
-92 -60 -64 0
-92 -60 -66 0
-92 -60 -68 0
-92 -60 -70 0
-92 -60 -72 0
-92 -62 -64 0
-92 -62 -66 0
-92 -62 -68 0
-92 -62 -70 0
-92 -62 -72 0
-92 -64 -66 0
-92 -64 -68 0
-92 -64 -70 0
-92 -64 -72 0
-92 -66 -68 0
-92 -66 -70 0
-92 -66 -72 0
-92 -68 -70 0
-92 -68 -72 0
-92 -70 -72 0
-21 -22 0
93 94 0
-93 3 5 9 11 13 15 31 35 37 39 41 45 47 49 51 61 63 65 67 69 71 0
-93 -3 -5 0
-93 -3 -9 0
-93 -3 -11 0
-93 -3 -13 0
-93 -3 -15 0
-93 -3 -31 0
-93 -3 -35 0
-93 -3 -37 0
-93 -3 -39 0
-93 -3 -41 0
-93 -3 -45 0
-93 -3 -47 0
-93 -3 -49 0
-93 -3 -51 0
-93 -3 -61 0
-93 -3 -63 0
-93 -3 -65 0
-93 -3 -67 0
-93 -3 -69 0
-93 -3 -71 0
-93 -5 -9 0
-93 -5 -11 0
-93 -5 -13 0
-93 -5 -15 0
-93 -5 -31 0
-93 -5 -35 0
-93 -5 -37 0
-93 -5 -39 0
-93 -5 -41 0
-93 -5 -45 0
-93 -5 -47 0
-93 -5 -49 0
-93 -5 -51 0
-93 -5 -61 0
-93 -5 -63 0
-93 -5 -65 0
-93 -5 -67 0
-93 -5 -69 0
-93 -5 -71 0
-93 -9 -11 0
-93 -9 -13 0
-93 -9 -15 0
-93 -9 -31 0
-93 -9 -35 0
-93 -9 -37 0
-93 -9 -39 0
-93 -9 -41 0
-93 -9 -45 0
-93 -9 -47 0
-93 -9 -49 0
-93 -9 -51 0
-93 -9 -61 0
-93 -9 -63 0
-93 -9 -65 0
-93 -9 -67 0
-93 -9 -69 0
-93 -9 -71 0
-93 -11 -13 0
-93 -11 -15 0
-93 -11 -31 0
-93 -11 -35 0
-93 -11 -37 0
-93 -11 -39 0
-93 -11 -41 0
-93 -11 -45 0
-93 -11 -47 0
-93 -11 -49 0
-93 -11 -51 0
-93 -11 -61 0
-93 -11 -63 0
-93 -11 -65 0
-93 -11 -67 0
-93 -11 -69 0
-93 -11 -71 0
-93 -13 -15 0
-93 -13 -31 0
-93 -13 -35 0
-93 -13 -37 0
-93 -13 -39 0
-93 -13 -41 0
-93 -13 -45 0
-93 -13 -47 0
-93 -13 -49 0
-93 -13 -51 0
-93 -13 -61 0
-93 -13 -63 0
-93 -13 -65 0
-93 -13 -67 0
-93 -13 -69 0
-93 -13 -71 0
-93 -15 -31 0
-93 -15 -35 0
-93 -15 -37 0
-93 -15 -39 0
-93 -15 -41 0
-93 -15 -45 0
-93 -15 -47 0
-93 -15 -49 0
-93 -15 -51 0
-93 -15 -61 0
-93 -15 -63 0
-93 -15 -65 0
-93 -15 -67 0
-93 -15 -69 0
-93 -15 -71 0
-93 -31 -35 0
-93 -31 -37 0
-93 -31 -39 0
-93 -31 -41 0
-93 -31 -45 0
-93 -31 -47 0
-93 -31 -49 0
-93 -31 -51 0
-93 -31 -61 0
-93 -31 -63 0
-93 -31 -65 0
-93 -31 -67 0
-93 -31 -69 0
-93 -31 -71 0
-93 -35 -37 0
-93 -35 -39 0
-93 -35 -41 0
-93 -35 -45 0
-93 -35 -47 0
-93 -35 -49 0
-93 -35 -51 0
-93 -35 -61 0
-93 -35 -63 0
-93 -35 -65 0
-93 -35 -67 0
-93 -35 -69 0
-93 -35 -71 0
-93 -37 -39 0
-93 -37 -41 0
-93 -37 -45 0
-93 -37 -47 0
-93 -37 -49 0
-93 -37 -51 0
-93 -37 -61 0
-93 -37 -63 0
-93 -37 -65 0
-93 -37 -67 0
-93 -37 -69 0
-93 -37 -71 0
-93 -39 -41 0
-93 -39 -45 0
-93 -39 -47 0
-93 -39 -49 0
-93 -39 -51 0
-93 -39 -61 0
-93 -39 -63 0
-93 -39 -65 0
-93 -39 -67 0
-93 -39 -69 0
-93 -39 -71 0
-93 -41 -45 0
-93 -41 -47 0
-93 -41 -49 0
-93 -41 -51 0
-93 -41 -61 0
-93 -41 -63 0
-93 -41 -65 0
-93 -41 -67 0
-93 -41 -69 0
-93 -41 -71 0
-93 -45 -47 0
-93 -45 -49 0
-93 -45 -51 0
-93 -45 -61 0
-93 -45 -63 0
-93 -45 -65 0
-93 -45 -67 0
-93 -45 -69 0
-93 -45 -71 0
-93 -47 -49 0
-93 -47 -51 0
-93 -47 -61 0
-93 -47 -63 0
-93 -47 -65 0
-93 -47 -67 0
-93 -47 -69 0
-93 -47 -71 0
-93 -49 -51 0
-93 -49 -61 0
-93 -49 -63 0
-93 -49 -65 0
-93 -49 -67 0
-93 -49 -69 0
-93 -49 -71 0
-93 -51 -61 0
-93 -51 -63 0
-93 -51 -65 0
-93 -51 -67 0
-93 -51 -69 0
-93 -51 -71 0
-93 -61 -63 0
-93 -61 -65 0
-93 -61 -67 0
-93 -61 -69 0
-93 -61 -71 0
-93 -63 -65 0
-93 -63 -67 0
-93 -63 -69 0
-93 -63 -71 0
-93 -65 -67 0
-93 -65 -69 0
-93 -65 -71 0
-93 -67 -69 0
-93 -67 -71 0
-93 -69 -71 0
-94 4 6 10 12 14 16 32 36 38 40 42 46 48 50 52 62 64 66 68 70 72 0
-94 -4 -6 0
-94 -4 -10 0
-94 -4 -12 0
-94 -4 -14 0
-94 -4 -16 0
-94 -4 -32 0
-94 -4 -36 0
-94 -4 -38 0
-94 -4 -40 0
-94 -4 -42 0
-94 -4 -46 0
-94 -4 -48 0
-94 -4 -50 0
-94 -4 -52 0
-94 -4 -62 0
-94 -4 -64 0
-94 -4 -66 0
-94 -4 -68 0
-94 -4 -70 0
-94 -4 -72 0
-94 -6 -10 0
-94 -6 -12 0
-94 -6 -14 0
-94 -6 -16 0
-94 -6 -32 0
-94 -6 -36 0
-94 -6 -38 0
-94 -6 -40 0
-94 -6 -42 0
-94 -6 -46 0
-94 -6 -48 0
-94 -6 -50 0
-94 -6 -52 0
-94 -6 -62 0
-94 -6 -64 0
-94 -6 -66 0
-94 -6 -68 0
-94 -6 -70 0
-94 -6 -72 0
-94 -10 -12 0
-94 -10 -14 0
-94 -10 -16 0
-94 -10 -32 0
-94 -10 -36 0
-94 -10 -38 0
-94 -10 -40 0
-94 -10 -42 0
-94 -10 -46 0
-94 -10 -48 0
-94 -10 -50 0
-94 -10 -52 0
-94 -10 -62 0
-94 -10 -64 0
-94 -10 -66 0
-94 -10 -68 0
-94 -10 -70 0
-94 -10 -72 0
-94 -12 -14 0
-94 -12 -16 0
-94 -12 -32 0
-94 -12 -36 0
-94 -12 -38 0
-94 -12 -40 0
-94 -12 -42 0
-94 -12 -46 0
-94 -12 -48 0
-94 -12 -50 0
-94 -12 -52 0
-94 -12 -62 0
-94 -12 -64 0
-94 -12 -66 0
-94 -12 -68 0
-94 -12 -70 0
-94 -12 -72 0
-94 -14 -16 0
-94 -14 -32 0
-94 -14 -36 0
-94 -14 -38 0
-94 -14 -40 0
-94 -14 -42 0
-94 -14 -46 0
-94 -14 -48 0
-94 -14 -50 0
-94 -14 -52 0
-94 -14 -62 0
-94 -14 -64 0
-94 -14 -66 0
-94 -14 -68 0
-94 -14 -70 0
-94 -14 -72 0
-94 -16 -32 0
-94 -16 -36 0
-94 -16 -38 0
-94 -16 -40 0
-94 -16 -42 0
-94 -16 -46 0
-94 -16 -48 0
-94 -16 -50 0
-94 -16 -52 0
-94 -16 -62 0
-94 -16 -64 0
-94 -16 -66 0
-94 -16 -68 0
-94 -16 -70 0
-94 -16 -72 0
-94 -32 -36 0
-94 -32 -38 0
-94 -32 -40 0
-94 -32 -42 0
-94 -32 -46 0
-94 -32 -48 0
-94 -32 -50 0
-94 -32 -52 0
-94 -32 -62 0
-94 -32 -64 0
-94 -32 -66 0
-94 -32 -68 0
-94 -32 -70 0
-94 -32 -72 0
-94 -36 -38 0
-94 -36 -40 0
-94 -36 -42 0
-94 -36 -46 0
-94 -36 -48 0
-94 -36 -50 0
-94 -36 -52 0
-94 -36 -62 0
-94 -36 -64 0
-94 -36 -66 0
-94 -36 -68 0
-94 -36 -70 0
-94 -36 -72 0
-94 -38 -40 0
-94 -38 -42 0
-94 -38 -46 0
-94 -38 -48 0
-94 -38 -50 0
-94 -38 -52 0
-94 -38 -62 0
-94 -38 -64 0
-94 -38 -66 0
-94 -38 -68 0
-94 -38 -70 0
-94 -38 -72 0
-94 -40 -42 0
-94 -40 -46 0
-94 -40 -48 0
-94 -40 -50 0
-94 -40 -52 0
-94 -40 -62 0
-94 -40 -64 0
-94 -40 -66 0
-94 -40 -68 0
-94 -40 -70 0
-94 -40 -72 0
-94 -42 -46 0
-94 -42 -48 0
-94 -42 -50 0
-94 -42 -52 0
-94 -42 -62 0
-94 -42 -64 0
-94 -42 -66 0
-94 -42 -68 0
-94 -42 -70 0
-94 -42 -72 0
-94 -46 -48 0
-94 -46 -50 0
-94 -46 -52 0
-94 -46 -62 0
-94 -46 -64 0
-94 -46 -66 0
-94 -46 -68 0
-94 -46 -70 0
-94 -46 -72 0
-94 -48 -50 0
-94 -48 -52 0
-94 -48 -62 0
-94 -48 -64 0
-94 -48 -66 0
-94 -48 -68 0
-94 -48 -70 0
-94 -48 -72 0
-94 -50 -52 0
-94 -50 -62 0
-94 -50 -64 0
-94 -50 -66 0
-94 -50 -68 0
-94 -50 -70 0
-94 -50 -72 0
-94 -52 -62 0
-94 -52 -64 0
-94 -52 -66 0
-94 -52 -68 0
-94 -52 -70 0
-94 -52 -72 0
-94 -62 -64 0
-94 -62 -66 0
-94 -62 -68 0
-94 -62 -70 0
-94 -62 -72 0
-94 -64 -66 0
-94 -64 -68 0
-94 -64 -70 0
-94 -64 -72 0
-94 -66 -68 0
-94 -66 -70 0
-94 -66 -72 0
-94 -68 -70 0
-94 -68 -72 0
-94 -70 -72 0
-23 -24 0
95 96 0
-95 3 5 7 11 13 15 31 33 37 39 41 43 47 49 51 55 57 59 67 69 71 0
-95 -3 -5 0
-95 -3 -7 0
-95 -3 -11 0
-95 -3 -13 0
-95 -3 -15 0
-95 -3 -31 0
-95 -3 -33 0
-95 -3 -37 0
-95 -3 -39 0
-95 -3 -41 0
-95 -3 -43 0
-95 -3 -47 0
-95 -3 -49 0
-95 -3 -51 0
-95 -3 -55 0
-95 -3 -57 0
-95 -3 -59 0
-95 -3 -67 0
-95 -3 -69 0
-95 -3 -71 0
-95 -5 -7 0
-95 -5 -11 0
-95 -5 -13 0
-95 -5 -15 0
-95 -5 -31 0
-95 -5 -33 0
-95 -5 -37 0
-95 -5 -39 0
-95 -5 -41 0
-95 -5 -43 0
-95 -5 -47 0
-95 -5 -49 0
-95 -5 -51 0
-95 -5 -55 0
-95 -5 -57 0
-95 -5 -59 0
-95 -5 -67 0
-95 -5 -69 0
-95 -5 -71 0
-95 -7 -11 0
-95 -7 -13 0
-95 -7 -15 0
-95 -7 -31 0
-95 -7 -33 0
-95 -7 -37 0
-95 -7 -39 0
-95 -7 -41 0
-95 -7 -43 0
-95 -7 -47 0
-95 -7 -49 0
-95 -7 -51 0
-95 -7 -55 0
-95 -7 -57 0
-95 -7 -59 0
-95 -7 -67 0
-95 -7 -69 0
-95 -7 -71 0
-95 -11 -13 0
-95 -11 -15 0
-95 -11 -31 0
-95 -11 -33 0
-95 -11 -37 0
-95 -11 -39 0
-95 -11 -41 0
-95 -11 -43 0
-95 -11 -47 0
-95 -11 -49 0
-95 -11 -51 0
-95 -11 -55 0
-95 -11 -57 0
-95 -11 -59 0
-95 -11 -67 0
-95 -11 -69 0
-95 -11 -71 0
-95 -13 -15 0
-95 -13 -31 0
-95 -13 -33 0
-95 -13 -37 0
-95 -13 -39 0
-95 -13 -41 0
-95 -13 -43 0
-95 -13 -47 0
-95 -13 -49 0
-95 -13 -51 0
-95 -13 -55 0
-95 -13 -57 0
-95 -13 -59 0
-95 -13 -67 0
-95 -13 -69 0
-95 -13 -71 0
-95 -15 -31 0
-95 -15 -33 0
-95 -15 -37 0
-95 -15 -39 0
-95 -15 -41 0
-95 -15 -43 0
-95 -15 -47 0
-95 -15 -49 0
-95 -15 -51 0
-95 -15 -55 0
-95 -15 -57 0
-95 -15 -59 0
-95 -15 -67 0
-95 -15 -69 0
-95 -15 -71 0
-95 -31 -33 0
-95 -31 -37 0
-95 -31 -39 0
-95 -31 -41 0
-95 -31 -43 0
-95 -31 -47 0
-95 -31 -49 0
-95 -31 -51 0
-95 -31 -55 0
-95 -31 -57 0
-95 -31 -59 0
-95 -31 -67 0
-95 -31 -69 0
-95 -31 -71 0
-95 -33 -37 0
-95 -33 -39 0
-95 -33 -41 0
-95 -33 -43 0
-95 -33 -47 0
-95 -33 -49 0
-95 -33 -51 0
-95 -33 -55 0
-95 -33 -57 0
-95 -33 -59 0
-95 -33 -67 0
-95 -33 -69 0
-95 -33 -71 0
-95 -37 -39 0
-95 -37 -41 0
-95 -37 -43 0
-95 -37 -47 0
-95 -37 -49 0
-95 -37 -51 0
-95 -37 -55 0
-95 -37 -57 0
-95 -37 -59 0
-95 -37 -67 0
-95 -37 -69 0
-95 -37 -71 0
-95 -39 -41 0
-95 -39 -43 0
-95 -39 -47 0
-95 -39 -49 0
-95 -39 -51 0
-95 -39 -55 0
-95 -39 -57 0
-95 -39 -59 0
-95 -39 -67 0
-95 -39 -69 0
-95 -39 -71 0
-95 -41 -43 0
-95 -41 -47 0
-95 -41 -49 0
-95 -41 -51 0
-95 -41 -55 0
-95 -41 -57 0
-95 -41 -59 0
-95 -41 -67 0
-95 -41 -69 0
-95 -41 -71 0
-95 -43 -47 0
-95 -43 -49 0
-95 -43 -51 0
-95 -43 -55 0
-95 -43 -57 0
-95 -43 -59 0
-95 -43 -67 0
-95 -43 -69 0
-95 -43 -71 0
-95 -47 -49 0
-95 -47 -51 0
-95 -47 -55 0
-95 -47 -57 0
-95 -47 -59 0
-95 -47 -67 0
-95 -47 -69 0
-95 -47 -71 0
-95 -49 -51 0
-95 -49 -55 0
-95 -49 -57 0
-95 -49 -59 0
-95 -49 -67 0
-95 -49 -69 0
-95 -49 -71 0
-95 -51 -55 0
-95 -51 -57 0
-95 -51 -59 0
-95 -51 -67 0
-95 -51 -69 0
-95 -51 -71 0
-95 -55 -57 0
-95 -55 -59 0
-95 -55 -67 0
-95 -55 -69 0
-95 -55 -71 0
-95 -57 -59 0
-95 -57 -67 0
-95 -57 -69 0
-95 -57 -71 0
-95 -59 -67 0
-95 -59 -69 0
-95 -59 -71 0
-95 -67 -69 0
-95 -67 -71 0
-95 -69 -71 0
-96 4 6 8 12 14 16 32 34 38 40 42 44 48 50 52 56 58 60 68 70 72 0
-96 -4 -6 0
-96 -4 -8 0
-96 -4 -12 0
-96 -4 -14 0
-96 -4 -16 0
-96 -4 -32 0
-96 -4 -34 0
-96 -4 -38 0
-96 -4 -40 0
-96 -4 -42 0
-96 -4 -44 0
-96 -4 -48 0
-96 -4 -50 0
-96 -4 -52 0
-96 -4 -56 0
-96 -4 -58 0
-96 -4 -60 0
-96 -4 -68 0
-96 -4 -70 0
-96 -4 -72 0
-96 -6 -8 0
-96 -6 -12 0
-96 -6 -14 0
-96 -6 -16 0
-96 -6 -32 0
-96 -6 -34 0
-96 -6 -38 0
-96 -6 -40 0
-96 -6 -42 0
-96 -6 -44 0
-96 -6 -48 0
-96 -6 -50 0
-96 -6 -52 0
-96 -6 -56 0
-96 -6 -58 0
-96 -6 -60 0
-96 -6 -68 0
-96 -6 -70 0
-96 -6 -72 0
-96 -8 -12 0
-96 -8 -14 0
-96 -8 -16 0
-96 -8 -32 0
-96 -8 -34 0
-96 -8 -38 0
-96 -8 -40 0
-96 -8 -42 0
-96 -8 -44 0
-96 -8 -48 0
-96 -8 -50 0
-96 -8 -52 0
-96 -8 -56 0
-96 -8 -58 0
-96 -8 -60 0
-96 -8 -68 0
-96 -8 -70 0
-96 -8 -72 0
-96 -12 -14 0
-96 -12 -16 0
-96 -12 -32 0
-96 -12 -34 0
-96 -12 -38 0
-96 -12 -40 0
-96 -12 -42 0
-96 -12 -44 0
-96 -12 -48 0
-96 -12 -50 0
-96 -12 -52 0
-96 -12 -56 0
-96 -12 -58 0
-96 -12 -60 0
-96 -12 -68 0
-96 -12 -70 0
-96 -12 -72 0
-96 -14 -16 0
-96 -14 -32 0
-96 -14 -34 0
-96 -14 -38 0
-96 -14 -40 0
-96 -14 -42 0
-96 -14 -44 0
-96 -14 -48 0
-96 -14 -50 0
-96 -14 -52 0
-96 -14 -56 0
-96 -14 -58 0
-96 -14 -60 0
-96 -14 -68 0
-96 -14 -70 0
-96 -14 -72 0
-96 -16 -32 0
-96 -16 -34 0
-96 -16 -38 0
-96 -16 -40 0
-96 -16 -42 0
-96 -16 -44 0
-96 -16 -48 0
-96 -16 -50 0
-96 -16 -52 0
-96 -16 -56 0
-96 -16 -58 0
-96 -16 -60 0
-96 -16 -68 0
-96 -16 -70 0
-96 -16 -72 0
-96 -32 -34 0
-96 -32 -38 0
-96 -32 -40 0
-96 -32 -42 0
-96 -32 -44 0
-96 -32 -48 0
-96 -32 -50 0
-96 -32 -52 0
-96 -32 -56 0
-96 -32 -58 0
-96 -32 -60 0
-96 -32 -68 0
-96 -32 -70 0
-96 -32 -72 0
-96 -34 -38 0
-96 -34 -40 0
-96 -34 -42 0
-96 -34 -44 0
-96 -34 -48 0
-96 -34 -50 0
-96 -34 -52 0
-96 -34 -56 0
-96 -34 -58 0
-96 -34 -60 0
-96 -34 -68 0
-96 -34 -70 0
-96 -34 -72 0
-96 -38 -40 0
-96 -38 -42 0
-96 -38 -44 0
-96 -38 -48 0
-96 -38 -50 0
-96 -38 -52 0
-96 -38 -56 0
-96 -38 -58 0
-96 -38 -60 0
-96 -38 -68 0
-96 -38 -70 0
-96 -38 -72 0
-96 -40 -42 0
-96 -40 -44 0
-96 -40 -48 0
-96 -40 -50 0
-96 -40 -52 0
-96 -40 -56 0
-96 -40 -58 0
-96 -40 -60 0
-96 -40 -68 0
-96 -40 -70 0
-96 -40 -72 0
-96 -42 -44 0
-96 -42 -48 0
-96 -42 -50 0
-96 -42 -52 0
-96 -42 -56 0
-96 -42 -58 0
-96 -42 -60 0
-96 -42 -68 0
-96 -42 -70 0
-96 -42 -72 0
-96 -44 -48 0
-96 -44 -50 0
-96 -44 -52 0
-96 -44 -56 0
-96 -44 -58 0
-96 -44 -60 0
-96 -44 -68 0
-96 -44 -70 0
-96 -44 -72 0
-96 -48 -50 0
-96 -48 -52 0
-96 -48 -56 0
-96 -48 -58 0
-96 -48 -60 0
-96 -48 -68 0
-96 -48 -70 0
-96 -48 -72 0
-96 -50 -52 0
-96 -50 -56 0
-96 -50 -58 0
-96 -50 -60 0
-96 -50 -68 0
-96 -50 -70 0
-96 -50 -72 0
-96 -52 -56 0
-96 -52 -58 0
-96 -52 -60 0
-96 -52 -68 0
-96 -52 -70 0
-96 -52 -72 0
-96 -56 -58 0
-96 -56 -60 0
-96 -56 -68 0
-96 -56 -70 0
-96 -56 -72 0
-96 -58 -60 0
-96 -58 -68 0
-96 -58 -70 0
-96 -58 -72 0
-96 -60 -68 0
-96 -60 -70 0
-96 -60 -72 0
-96 -68 -70 0
-96 -68 -72 0
-96 -70 -72 0
-25 -26 0
97 98 0
-97 3 5 7 9 13 15 31 33 35 39 41 43 45 49 51 53 57 59 63 65 71 0
-97 -3 -5 0
-97 -3 -7 0
-97 -3 -9 0
-97 -3 -13 0
-97 -3 -15 0
-97 -3 -31 0
-97 -3 -33 0
-97 -3 -35 0
-97 -3 -39 0
-97 -3 -41 0
-97 -3 -43 0
-97 -3 -45 0
-97 -3 -49 0
-97 -3 -51 0
-97 -3 -53 0
-97 -3 -57 0
-97 -3 -59 0
-97 -3 -63 0
-97 -3 -65 0
-97 -3 -71 0
-97 -5 -7 0
-97 -5 -9 0
-97 -5 -13 0
-97 -5 -15 0
-97 -5 -31 0
-97 -5 -33 0
-97 -5 -35 0
-97 -5 -39 0
-97 -5 -41 0
-97 -5 -43 0
-97 -5 -45 0
-97 -5 -49 0
-97 -5 -51 0
-97 -5 -53 0
-97 -5 -57 0
-97 -5 -59 0
-97 -5 -63 0
-97 -5 -65 0
-97 -5 -71 0
-97 -7 -9 0
-97 -7 -13 0
-97 -7 -15 0
-97 -7 -31 0
-97 -7 -33 0
-97 -7 -35 0
-97 -7 -39 0
-97 -7 -41 0
-97 -7 -43 0
-97 -7 -45 0
-97 -7 -49 0
-97 -7 -51 0
-97 -7 -53 0
-97 -7 -57 0
-97 -7 -59 0
-97 -7 -63 0
-97 -7 -65 0
-97 -7 -71 0
-97 -9 -13 0
-97 -9 -15 0
-97 -9 -31 0
-97 -9 -33 0
-97 -9 -35 0
-97 -9 -39 0
-97 -9 -41 0
-97 -9 -43 0
-97 -9 -45 0
-97 -9 -49 0
-97 -9 -51 0
-97 -9 -53 0
-97 -9 -57 0
-97 -9 -59 0
-97 -9 -63 0
-97 -9 -65 0
-97 -9 -71 0
-97 -13 -15 0
-97 -13 -31 0
-97 -13 -33 0
-97 -13 -35 0
-97 -13 -39 0
-97 -13 -41 0
-97 -13 -43 0
-97 -13 -45 0
-97 -13 -49 0
-97 -13 -51 0
-97 -13 -53 0
-97 -13 -57 0
-97 -13 -59 0
-97 -13 -63 0
-97 -13 -65 0
-97 -13 -71 0
-97 -15 -31 0
-97 -15 -33 0
-97 -15 -35 0
-97 -15 -39 0
-97 -15 -41 0
-97 -15 -43 0
-97 -15 -45 0
-97 -15 -49 0
-97 -15 -51 0
-97 -15 -53 0
-97 -15 -57 0
-97 -15 -59 0
-97 -15 -63 0
-97 -15 -65 0
-97 -15 -71 0
-97 -31 -33 0
-97 -31 -35 0
-97 -31 -39 0
-97 -31 -41 0
-97 -31 -43 0
-97 -31 -45 0
-97 -31 -49 0
-97 -31 -51 0
-97 -31 -53 0
-97 -31 -57 0
-97 -31 -59 0
-97 -31 -63 0
-97 -31 -65 0
-97 -31 -71 0
-97 -33 -35 0
-97 -33 -39 0
-97 -33 -41 0
-97 -33 -43 0
-97 -33 -45 0
-97 -33 -49 0
-97 -33 -51 0
-97 -33 -53 0
-97 -33 -57 0
-97 -33 -59 0
-97 -33 -63 0
-97 -33 -65 0
-97 -33 -71 0
-97 -35 -39 0
-97 -35 -41 0
-97 -35 -43 0
-97 -35 -45 0
-97 -35 -49 0
-97 -35 -51 0
-97 -35 -53 0
-97 -35 -57 0
-97 -35 -59 0
-97 -35 -63 0
-97 -35 -65 0
-97 -35 -71 0
-97 -39 -41 0
-97 -39 -43 0
-97 -39 -45 0
-97 -39 -49 0
-97 -39 -51 0
-97 -39 -53 0
-97 -39 -57 0
-97 -39 -59 0
-97 -39 -63 0
-97 -39 -65 0
-97 -39 -71 0
-97 -41 -43 0
-97 -41 -45 0
-97 -41 -49 0
-97 -41 -51 0
-97 -41 -53 0
-97 -41 -57 0
-97 -41 -59 0
-97 -41 -63 0
-97 -41 -65 0
-97 -41 -71 0
-97 -43 -45 0
-97 -43 -49 0
-97 -43 -51 0
-97 -43 -53 0
-97 -43 -57 0
-97 -43 -59 0
-97 -43 -63 0
-97 -43 -65 0
-97 -43 -71 0
-97 -45 -49 0
-97 -45 -51 0
-97 -45 -53 0
-97 -45 -57 0
-97 -45 -59 0
-97 -45 -63 0
-97 -45 -65 0
-97 -45 -71 0
-97 -49 -51 0
-97 -49 -53 0
-97 -49 -57 0
-97 -49 -59 0
-97 -49 -63 0
-97 -49 -65 0
-97 -49 -71 0
-97 -51 -53 0
-97 -51 -57 0
-97 -51 -59 0
-97 -51 -63 0
-97 -51 -65 0
-97 -51 -71 0
-97 -53 -57 0
-97 -53 -59 0
-97 -53 -63 0
-97 -53 -65 0
-97 -53 -71 0
-97 -57 -59 0
-97 -57 -63 0
-97 -57 -65 0
-97 -57 -71 0
-97 -59 -63 0
-97 -59 -65 0
-97 -59 -71 0
-97 -63 -65 0
-97 -63 -71 0
-97 -65 -71 0
-98 4 6 8 10 14 16 32 34 36 40 42 44 46 50 52 54 58 60 64 66 72 0
-98 -4 -6 0
-98 -4 -8 0
-98 -4 -10 0
-98 -4 -14 0
-98 -4 -16 0
-98 -4 -32 0
-98 -4 -34 0
-98 -4 -36 0
-98 -4 -40 0
-98 -4 -42 0
-98 -4 -44 0
-98 -4 -46 0
-98 -4 -50 0
-98 -4 -52 0
-98 -4 -54 0
-98 -4 -58 0
-98 -4 -60 0
-98 -4 -64 0
-98 -4 -66 0
-98 -4 -72 0
-98 -6 -8 0
-98 -6 -10 0
-98 -6 -14 0
-98 -6 -16 0
-98 -6 -32 0
-98 -6 -34 0
-98 -6 -36 0
-98 -6 -40 0
-98 -6 -42 0
-98 -6 -44 0
-98 -6 -46 0
-98 -6 -50 0
-98 -6 -52 0
-98 -6 -54 0
-98 -6 -58 0
-98 -6 -60 0
-98 -6 -64 0
-98 -6 -66 0
-98 -6 -72 0
-98 -8 -10 0
-98 -8 -14 0
-98 -8 -16 0
-98 -8 -32 0
-98 -8 -34 0
-98 -8 -36 0
-98 -8 -40 0
-98 -8 -42 0
-98 -8 -44 0
-98 -8 -46 0
-98 -8 -50 0
-98 -8 -52 0
-98 -8 -54 0
-98 -8 -58 0
-98 -8 -60 0
-98 -8 -64 0
-98 -8 -66 0
-98 -8 -72 0
-98 -10 -14 0
-98 -10 -16 0
-98 -10 -32 0
-98 -10 -34 0
-98 -10 -36 0
-98 -10 -40 0
-98 -10 -42 0
-98 -10 -44 0
-98 -10 -46 0
-98 -10 -50 0
-98 -10 -52 0
-98 -10 -54 0
-98 -10 -58 0
-98 -10 -60 0
-98 -10 -64 0
-98 -10 -66 0
-98 -10 -72 0
-98 -14 -16 0
-98 -14 -32 0
-98 -14 -34 0
-98 -14 -36 0
-98 -14 -40 0
-98 -14 -42 0
-98 -14 -44 0
-98 -14 -46 0
-98 -14 -50 0
-98 -14 -52 0
-98 -14 -54 0
-98 -14 -58 0
-98 -14 -60 0
-98 -14 -64 0
-98 -14 -66 0
-98 -14 -72 0
-98 -16 -32 0
-98 -16 -34 0
-98 -16 -36 0
-98 -16 -40 0
-98 -16 -42 0
-98 -16 -44 0
-98 -16 -46 0
-98 -16 -50 0
-98 -16 -52 0
-98 -16 -54 0
-98 -16 -58 0
-98 -16 -60 0
-98 -16 -64 0
-98 -16 -66 0
-98 -16 -72 0
-98 -32 -34 0
-98 -32 -36 0
-98 -32 -40 0
-98 -32 -42 0
-98 -32 -44 0
-98 -32 -46 0
-98 -32 -50 0
-98 -32 -52 0
-98 -32 -54 0
-98 -32 -58 0
-98 -32 -60 0
-98 -32 -64 0
-98 -32 -66 0
-98 -32 -72 0
-98 -34 -36 0
-98 -34 -40 0
-98 -34 -42 0
-98 -34 -44 0
-98 -34 -46 0
-98 -34 -50 0
-98 -34 -52 0
-98 -34 -54 0
-98 -34 -58 0
-98 -34 -60 0
-98 -34 -64 0
-98 -34 -66 0
-98 -34 -72 0
-98 -36 -40 0
-98 -36 -42 0
-98 -36 -44 0
-98 -36 -46 0
-98 -36 -50 0
-98 -36 -52 0
-98 -36 -54 0
-98 -36 -58 0
-98 -36 -60 0
-98 -36 -64 0
-98 -36 -66 0
-98 -36 -72 0
-98 -40 -42 0
-98 -40 -44 0
-98 -40 -46 0
-98 -40 -50 0
-98 -40 -52 0
-98 -40 -54 0
-98 -40 -58 0
-98 -40 -60 0
-98 -40 -64 0
-98 -40 -66 0
-98 -40 -72 0
-98 -42 -44 0
-98 -42 -46 0
-98 -42 -50 0
-98 -42 -52 0
-98 -42 -54 0
-98 -42 -58 0
-98 -42 -60 0
-98 -42 -64 0
-98 -42 -66 0
-98 -42 -72 0
-98 -44 -46 0
-98 -44 -50 0
-98 -44 -52 0
-98 -44 -54 0
-98 -44 -58 0
-98 -44 -60 0
-98 -44 -64 0
-98 -44 -66 0
-98 -44 -72 0
-98 -46 -50 0
-98 -46 -52 0
-98 -46 -54 0
-98 -46 -58 0
-98 -46 -60 0
-98 -46 -64 0
-98 -46 -66 0
-98 -46 -72 0
-98 -50 -52 0
-98 -50 -54 0
-98 -50 -58 0
-98 -50 -60 0
-98 -50 -64 0
-98 -50 -66 0
-98 -50 -72 0
-98 -52 -54 0
-98 -52 -58 0
-98 -52 -60 0
-98 -52 -64 0
-98 -52 -66 0
-98 -52 -72 0
-98 -54 -58 0
-98 -54 -60 0
-98 -54 -64 0
-98 -54 -66 0
-98 -54 -72 0
-98 -58 -60 0
-98 -58 -64 0
-98 -58 -66 0
-98 -58 -72 0
-98 -60 -64 0
-98 -60 -66 0
-98 -60 -72 0
-98 -64 -66 0
-98 -64 -72 0
-98 -66 -72 0
-27 -28 0
99 100 0
-99 3 5 7 9 11 15 31 33 35 37 41 43 45 47 51 53 55 59 61 65 69 0
-99 -3 -5 0
-99 -3 -7 0
-99 -3 -9 0
-99 -3 -11 0
-99 -3 -15 0
-99 -3 -31 0
-99 -3 -33 0
-99 -3 -35 0
-99 -3 -37 0
-99 -3 -41 0
-99 -3 -43 0
-99 -3 -45 0
-99 -3 -47 0
-99 -3 -51 0
-99 -3 -53 0
-99 -3 -55 0
-99 -3 -59 0
-99 -3 -61 0
-99 -3 -65 0
-99 -3 -69 0
-99 -5 -7 0
-99 -5 -9 0
-99 -5 -11 0
-99 -5 -15 0
-99 -5 -31 0
-99 -5 -33 0
-99 -5 -35 0
-99 -5 -37 0
-99 -5 -41 0
-99 -5 -43 0
-99 -5 -45 0
-99 -5 -47 0
-99 -5 -51 0
-99 -5 -53 0
-99 -5 -55 0
-99 -5 -59 0
-99 -5 -61 0
-99 -5 -65 0
-99 -5 -69 0
-99 -7 -9 0
-99 -7 -11 0
-99 -7 -15 0
-99 -7 -31 0
-99 -7 -33 0
-99 -7 -35 0
-99 -7 -37 0
-99 -7 -41 0
-99 -7 -43 0
-99 -7 -45 0
-99 -7 -47 0
-99 -7 -51 0
-99 -7 -53 0
-99 -7 -55 0
-99 -7 -59 0
-99 -7 -61 0
-99 -7 -65 0
-99 -7 -69 0
-99 -9 -11 0
-99 -9 -15 0
-99 -9 -31 0
-99 -9 -33 0
-99 -9 -35 0
-99 -9 -37 0
-99 -9 -41 0
-99 -9 -43 0
-99 -9 -45 0
-99 -9 -47 0
-99 -9 -51 0
-99 -9 -53 0
-99 -9 -55 0
-99 -9 -59 0
-99 -9 -61 0
-99 -9 -65 0
-99 -9 -69 0
-99 -11 -15 0
-99 -11 -31 0
-99 -11 -33 0
-99 -11 -35 0
-99 -11 -37 0
-99 -11 -41 0
-99 -11 -43 0
-99 -11 -45 0
-99 -11 -47 0
-99 -11 -51 0
-99 -11 -53 0
-99 -11 -55 0
-99 -11 -59 0
-99 -11 -61 0
-99 -11 -65 0
-99 -11 -69 0
-99 -15 -31 0
-99 -15 -33 0
-99 -15 -35 0
-99 -15 -37 0
-99 -15 -41 0
-99 -15 -43 0
-99 -15 -45 0
-99 -15 -47 0
-99 -15 -51 0
-99 -15 -53 0
-99 -15 -55 0
-99 -15 -59 0
-99 -15 -61 0
-99 -15 -65 0
-99 -15 -69 0
-99 -31 -33 0
-99 -31 -35 0
-99 -31 -37 0
-99 -31 -41 0
-99 -31 -43 0
-99 -31 -45 0
-99 -31 -47 0
-99 -31 -51 0
-99 -31 -53 0
-99 -31 -55 0
-99 -31 -59 0
-99 -31 -61 0
-99 -31 -65 0
-99 -31 -69 0
-99 -33 -35 0
-99 -33 -37 0
-99 -33 -41 0
-99 -33 -43 0
-99 -33 -45 0
-99 -33 -47 0
-99 -33 -51 0
-99 -33 -53 0
-99 -33 -55 0
-99 -33 -59 0
-99 -33 -61 0
-99 -33 -65 0
-99 -33 -69 0
-99 -35 -37 0
-99 -35 -41 0
-99 -35 -43 0
-99 -35 -45 0
-99 -35 -47 0
-99 -35 -51 0
-99 -35 -53 0
-99 -35 -55 0
-99 -35 -59 0
-99 -35 -61 0
-99 -35 -65 0
-99 -35 -69 0
-99 -37 -41 0
-99 -37 -43 0
-99 -37 -45 0
-99 -37 -47 0
-99 -37 -51 0
-99 -37 -53 0
-99 -37 -55 0
-99 -37 -59 0
-99 -37 -61 0
-99 -37 -65 0
-99 -37 -69 0
-99 -41 -43 0
-99 -41 -45 0
-99 -41 -47 0
-99 -41 -51 0
-99 -41 -53 0
-99 -41 -55 0
-99 -41 -59 0
-99 -41 -61 0
-99 -41 -65 0
-99 -41 -69 0
-99 -43 -45 0
-99 -43 -47 0
-99 -43 -51 0
-99 -43 -53 0
-99 -43 -55 0
-99 -43 -59 0
-99 -43 -61 0
-99 -43 -65 0
-99 -43 -69 0
-99 -45 -47 0
-99 -45 -51 0
-99 -45 -53 0
-99 -45 -55 0
-99 -45 -59 0
-99 -45 -61 0
-99 -45 -65 0
-99 -45 -69 0
-99 -47 -51 0
-99 -47 -53 0
-99 -47 -55 0
-99 -47 -59 0
-99 -47 -61 0
-99 -47 -65 0
-99 -47 -69 0
-99 -51 -53 0
-99 -51 -55 0
-99 -51 -59 0
-99 -51 -61 0
-99 -51 -65 0
-99 -51 -69 0
-99 -53 -55 0
-99 -53 -59 0
-99 -53 -61 0
-99 -53 -65 0
-99 -53 -69 0
-99 -55 -59 0
-99 -55 -61 0
-99 -55 -65 0
-99 -55 -69 0
-99 -59 -61 0
-99 -59 -65 0
-99 -59 -69 0
-99 -61 -65 0
-99 -61 -69 0
-99 -65 -69 0
-100 4 6 8 10 12 16 32 34 36 38 42 44 46 48 52 54 56 60 62 66 70 0
-100 -4 -6 0
-100 -4 -8 0
-100 -4 -10 0
-100 -4 -12 0
-100 -4 -16 0
-100 -4 -32 0
-100 -4 -34 0
-100 -4 -36 0
-100 -4 -38 0
-100 -4 -42 0
-100 -4 -44 0
-100 -4 -46 0
-100 -4 -48 0
-100 -4 -52 0
-100 -4 -54 0
-100 -4 -56 0
-100 -4 -60 0
-100 -4 -62 0
-100 -4 -66 0
-100 -4 -70 0
-100 -6 -8 0
-100 -6 -10 0
-100 -6 -12 0
-100 -6 -16 0
-100 -6 -32 0
-100 -6 -34 0
-100 -6 -36 0
-100 -6 -38 0
-100 -6 -42 0
-100 -6 -44 0
-100 -6 -46 0
-100 -6 -48 0
-100 -6 -52 0
-100 -6 -54 0
-100 -6 -56 0
-100 -6 -60 0
-100 -6 -62 0
-100 -6 -66 0
-100 -6 -70 0
-100 -8 -10 0
-100 -8 -12 0
-100 -8 -16 0
-100 -8 -32 0
-100 -8 -34 0
-100 -8 -36 0
-100 -8 -38 0
-100 -8 -42 0
-100 -8 -44 0
-100 -8 -46 0
-100 -8 -48 0
-100 -8 -52 0
-100 -8 -54 0
-100 -8 -56 0
-100 -8 -60 0
-100 -8 -62 0
-100 -8 -66 0
-100 -8 -70 0
-100 -10 -12 0
-100 -10 -16 0
-100 -10 -32 0
-100 -10 -34 0
-100 -10 -36 0
-100 -10 -38 0
-100 -10 -42 0
-100 -10 -44 0
-100 -10 -46 0
-100 -10 -48 0
-100 -10 -52 0
-100 -10 -54 0
-100 -10 -56 0
-100 -10 -60 0
-100 -10 -62 0
-100 -10 -66 0
-100 -10 -70 0
-100 -12 -16 0
-100 -12 -32 0
-100 -12 -34 0
-100 -12 -36 0
-100 -12 -38 0
-100 -12 -42 0
-100 -12 -44 0
-100 -12 -46 0
-100 -12 -48 0
-100 -12 -52 0
-100 -12 -54 0
-100 -12 -56 0
-100 -12 -60 0
-100 -12 -62 0
-100 -12 -66 0
-100 -12 -70 0
-100 -16 -32 0
-100 -16 -34 0
-100 -16 -36 0
-100 -16 -38 0
-100 -16 -42 0
-100 -16 -44 0
-100 -16 -46 0
-100 -16 -48 0
-100 -16 -52 0
-100 -16 -54 0
-100 -16 -56 0
-100 -16 -60 0
-100 -16 -62 0
-100 -16 -66 0
-100 -16 -70 0
-100 -32 -34 0
-100 -32 -36 0
-100 -32 -38 0
-100 -32 -42 0
-100 -32 -44 0
-100 -32 -46 0
-100 -32 -48 0
-100 -32 -52 0
-100 -32 -54 0
-100 -32 -56 0
-100 -32 -60 0
-100 -32 -62 0
-100 -32 -66 0
-100 -32 -70 0
-100 -34 -36 0
-100 -34 -38 0
-100 -34 -42 0
-100 -34 -44 0
-100 -34 -46 0
-100 -34 -48 0
-100 -34 -52 0
-100 -34 -54 0
-100 -34 -56 0
-100 -34 -60 0
-100 -34 -62 0
-100 -34 -66 0
-100 -34 -70 0
-100 -36 -38 0
-100 -36 -42 0
-100 -36 -44 0
-100 -36 -46 0
-100 -36 -48 0
-100 -36 -52 0
-100 -36 -54 0
-100 -36 -56 0
-100 -36 -60 0
-100 -36 -62 0
-100 -36 -66 0
-100 -36 -70 0
-100 -38 -42 0
-100 -38 -44 0
-100 -38 -46 0
-100 -38 -48 0
-100 -38 -52 0
-100 -38 -54 0
-100 -38 -56 0
-100 -38 -60 0
-100 -38 -62 0
-100 -38 -66 0
-100 -38 -70 0
-100 -42 -44 0
-100 -42 -46 0
-100 -42 -48 0
-100 -42 -52 0
-100 -42 -54 0
-100 -42 -56 0
-100 -42 -60 0
-100 -42 -62 0
-100 -42 -66 0
-100 -42 -70 0
-100 -44 -46 0
-100 -44 -48 0
-100 -44 -52 0
-100 -44 -54 0
-100 -44 -56 0
-100 -44 -60 0
-100 -44 -62 0
-100 -44 -66 0
-100 -44 -70 0
-100 -46 -48 0
-100 -46 -52 0
-100 -46 -54 0
-100 -46 -56 0
-100 -46 -60 0
-100 -46 -62 0
-100 -46 -66 0
-100 -46 -70 0
-100 -48 -52 0
-100 -48 -54 0
-100 -48 -56 0
-100 -48 -60 0
-100 -48 -62 0
-100 -48 -66 0
-100 -48 -70 0
-100 -52 -54 0
-100 -52 -56 0
-100 -52 -60 0
-100 -52 -62 0
-100 -52 -66 0
-100 -52 -70 0
-100 -54 -56 0
-100 -54 -60 0
-100 -54 -62 0
-100 -54 -66 0
-100 -54 -70 0
-100 -56 -60 0
-100 -56 -62 0
-100 -56 -66 0
-100 -56 -70 0
-100 -60 -62 0
-100 -60 -66 0
-100 -60 -70 0
-100 -62 -66 0
-100 -62 -70 0
-100 -66 -70 0
-29 -30 0
101 102 0
-101 3 5 7 9 11 13 31 33 35 37 39 43 45 47 49 53 55 57 61 63 67 0
-101 -3 -5 0
-101 -3 -7 0
-101 -3 -9 0
-101 -3 -11 0
-101 -3 -13 0
-101 -3 -31 0
-101 -3 -33 0
-101 -3 -35 0
-101 -3 -37 0
-101 -3 -39 0
-101 -3 -43 0
-101 -3 -45 0
-101 -3 -47 0
-101 -3 -49 0
-101 -3 -53 0
-101 -3 -55 0
-101 -3 -57 0
-101 -3 -61 0
-101 -3 -63 0
-101 -3 -67 0
-101 -5 -7 0
-101 -5 -9 0
-101 -5 -11 0
-101 -5 -13 0
-101 -5 -31 0
-101 -5 -33 0
-101 -5 -35 0
-101 -5 -37 0
-101 -5 -39 0
-101 -5 -43 0
-101 -5 -45 0
-101 -5 -47 0
-101 -5 -49 0
-101 -5 -53 0
-101 -5 -55 0
-101 -5 -57 0
-101 -5 -61 0
-101 -5 -63 0
-101 -5 -67 0
-101 -7 -9 0
-101 -7 -11 0
-101 -7 -13 0
-101 -7 -31 0
-101 -7 -33 0
-101 -7 -35 0
-101 -7 -37 0
-101 -7 -39 0
-101 -7 -43 0
-101 -7 -45 0
-101 -7 -47 0
-101 -7 -49 0
-101 -7 -53 0
-101 -7 -55 0
-101 -7 -57 0
-101 -7 -61 0
-101 -7 -63 0
-101 -7 -67 0
-101 -9 -11 0
-101 -9 -13 0
-101 -9 -31 0
-101 -9 -33 0
-101 -9 -35 0
-101 -9 -37 0
-101 -9 -39 0
-101 -9 -43 0
-101 -9 -45 0
-101 -9 -47 0
-101 -9 -49 0
-101 -9 -53 0
-101 -9 -55 0
-101 -9 -57 0
-101 -9 -61 0
-101 -9 -63 0
-101 -9 -67 0
-101 -11 -13 0
-101 -11 -31 0
-101 -11 -33 0
-101 -11 -35 0
-101 -11 -37 0
-101 -11 -39 0
-101 -11 -43 0
-101 -11 -45 0
-101 -11 -47 0
-101 -11 -49 0
-101 -11 -53 0
-101 -11 -55 0
-101 -11 -57 0
-101 -11 -61 0
-101 -11 -63 0
-101 -11 -67 0
-101 -13 -31 0
-101 -13 -33 0
-101 -13 -35 0
-101 -13 -37 0
-101 -13 -39 0
-101 -13 -43 0
-101 -13 -45 0
-101 -13 -47 0
-101 -13 -49 0
-101 -13 -53 0
-101 -13 -55 0
-101 -13 -57 0
-101 -13 -61 0
-101 -13 -63 0
-101 -13 -67 0
-101 -31 -33 0
-101 -31 -35 0
-101 -31 -37 0
-101 -31 -39 0
-101 -31 -43 0
-101 -31 -45 0
-101 -31 -47 0
-101 -31 -49 0
-101 -31 -53 0
-101 -31 -55 0
-101 -31 -57 0
-101 -31 -61 0
-101 -31 -63 0
-101 -31 -67 0
-101 -33 -35 0
-101 -33 -37 0
-101 -33 -39 0
-101 -33 -43 0
-101 -33 -45 0
-101 -33 -47 0
-101 -33 -49 0
-101 -33 -53 0
-101 -33 -55 0
-101 -33 -57 0
-101 -33 -61 0
-101 -33 -63 0
-101 -33 -67 0
-101 -35 -37 0
-101 -35 -39 0
-101 -35 -43 0
-101 -35 -45 0
-101 -35 -47 0
-101 -35 -49 0
-101 -35 -53 0
-101 -35 -55 0
-101 -35 -57 0
-101 -35 -61 0
-101 -35 -63 0
-101 -35 -67 0
-101 -37 -39 0
-101 -37 -43 0
-101 -37 -45 0
-101 -37 -47 0
-101 -37 -49 0
-101 -37 -53 0
-101 -37 -55 0
-101 -37 -57 0
-101 -37 -61 0
-101 -37 -63 0
-101 -37 -67 0
-101 -39 -43 0
-101 -39 -45 0
-101 -39 -47 0
-101 -39 -49 0
-101 -39 -53 0
-101 -39 -55 0
-101 -39 -57 0
-101 -39 -61 0
-101 -39 -63 0
-101 -39 -67 0
-101 -43 -45 0
-101 -43 -47 0
-101 -43 -49 0
-101 -43 -53 0
-101 -43 -55 0
-101 -43 -57 0
-101 -43 -61 0
-101 -43 -63 0
-101 -43 -67 0
-101 -45 -47 0
-101 -45 -49 0
-101 -45 -53 0
-101 -45 -55 0
-101 -45 -57 0
-101 -45 -61 0
-101 -45 -63 0
-101 -45 -67 0
-101 -47 -49 0
-101 -47 -53 0
-101 -47 -55 0
-101 -47 -57 0
-101 -47 -61 0
-101 -47 -63 0
-101 -47 -67 0
-101 -49 -53 0
-101 -49 -55 0
-101 -49 -57 0
-101 -49 -61 0
-101 -49 -63 0
-101 -49 -67 0
-101 -53 -55 0
-101 -53 -57 0
-101 -53 -61 0
-101 -53 -63 0
-101 -53 -67 0
-101 -55 -57 0
-101 -55 -61 0
-101 -55 -63 0
-101 -55 -67 0
-101 -57 -61 0
-101 -57 -63 0
-101 -57 -67 0
-101 -61 -63 0
-101 -61 -67 0
-101 -63 -67 0
-102 4 6 8 10 12 14 32 34 36 38 40 44 46 48 50 54 56 58 62 64 68 0
-102 -4 -6 0
-102 -4 -8 0
-102 -4 -10 0
-102 -4 -12 0
-102 -4 -14 0
-102 -4 -32 0
-102 -4 -34 0
-102 -4 -36 0
-102 -4 -38 0
-102 -4 -40 0
-102 -4 -44 0
-102 -4 -46 0
-102 -4 -48 0
-102 -4 -50 0
-102 -4 -54 0
-102 -4 -56 0
-102 -4 -58 0
-102 -4 -62 0
-102 -4 -64 0
-102 -4 -68 0
-102 -6 -8 0
-102 -6 -10 0
-102 -6 -12 0
-102 -6 -14 0
-102 -6 -32 0
-102 -6 -34 0
-102 -6 -36 0
-102 -6 -38 0
-102 -6 -40 0
-102 -6 -44 0
-102 -6 -46 0
-102 -6 -48 0
-102 -6 -50 0
-102 -6 -54 0
-102 -6 -56 0
-102 -6 -58 0
-102 -6 -62 0
-102 -6 -64 0
-102 -6 -68 0
-102 -8 -10 0
-102 -8 -12 0
-102 -8 -14 0
-102 -8 -32 0
-102 -8 -34 0
-102 -8 -36 0
-102 -8 -38 0
-102 -8 -40 0
-102 -8 -44 0
-102 -8 -46 0
-102 -8 -48 0
-102 -8 -50 0
-102 -8 -54 0
-102 -8 -56 0
-102 -8 -58 0
-102 -8 -62 0
-102 -8 -64 0
-102 -8 -68 0
-102 -10 -12 0
-102 -10 -14 0
-102 -10 -32 0
-102 -10 -34 0
-102 -10 -36 0
-102 -10 -38 0
-102 -10 -40 0
-102 -10 -44 0
-102 -10 -46 0
-102 -10 -48 0
-102 -10 -50 0
-102 -10 -54 0
-102 -10 -56 0
-102 -10 -58 0
-102 -10 -62 0
-102 -10 -64 0
-102 -10 -68 0
-102 -12 -14 0
-102 -12 -32 0
-102 -12 -34 0
-102 -12 -36 0
-102 -12 -38 0
-102 -12 -40 0
-102 -12 -44 0
-102 -12 -46 0
-102 -12 -48 0
-102 -12 -50 0
-102 -12 -54 0
-102 -12 -56 0
-102 -12 -58 0
-102 -12 -62 0
-102 -12 -64 0
-102 -12 -68 0
-102 -14 -32 0
-102 -14 -34 0
-102 -14 -36 0
-102 -14 -38 0
-102 -14 -40 0
-102 -14 -44 0
-102 -14 -46 0
-102 -14 -48 0
-102 -14 -50 0
-102 -14 -54 0
-102 -14 -56 0
-102 -14 -58 0
-102 -14 -62 0
-102 -14 -64 0
-102 -14 -68 0
-102 -32 -34 0
-102 -32 -36 0
-102 -32 -38 0
-102 -32 -40 0
-102 -32 -44 0
-102 -32 -46 0
-102 -32 -48 0
-102 -32 -50 0
-102 -32 -54 0
-102 -32 -56 0
-102 -32 -58 0
-102 -32 -62 0
-102 -32 -64 0
-102 -32 -68 0
-102 -34 -36 0
-102 -34 -38 0
-102 -34 -40 0
-102 -34 -44 0
-102 -34 -46 0
-102 -34 -48 0
-102 -34 -50 0
-102 -34 -54 0
-102 -34 -56 0
-102 -34 -58 0
-102 -34 -62 0
-102 -34 -64 0
-102 -34 -68 0
-102 -36 -38 0
-102 -36 -40 0
-102 -36 -44 0
-102 -36 -46 0
-102 -36 -48 0
-102 -36 -50 0
-102 -36 -54 0
-102 -36 -56 0
-102 -36 -58 0
-102 -36 -62 0
-102 -36 -64 0
-102 -36 -68 0
-102 -38 -40 0
-102 -38 -44 0
-102 -38 -46 0
-102 -38 -48 0
-102 -38 -50 0
-102 -38 -54 0
-102 -38 -56 0
-102 -38 -58 0
-102 -38 -62 0
-102 -38 -64 0
-102 -38 -68 0
-102 -40 -44 0
-102 -40 -46 0
-102 -40 -48 0
-102 -40 -50 0
-102 -40 -54 0
-102 -40 -56 0
-102 -40 -58 0
-102 -40 -62 0
-102 -40 -64 0
-102 -40 -68 0
-102 -44 -46 0
-102 -44 -48 0
-102 -44 -50 0
-102 -44 -54 0
-102 -44 -56 0
-102 -44 -58 0
-102 -44 -62 0
-102 -44 -64 0
-102 -44 -68 0
-102 -46 -48 0
-102 -46 -50 0
-102 -46 -54 0
-102 -46 -56 0
-102 -46 -58 0
-102 -46 -62 0
-102 -46 -64 0
-102 -46 -68 0
-102 -48 -50 0
-102 -48 -54 0
-102 -48 -56 0
-102 -48 -58 0
-102 -48 -62 0
-102 -48 -64 0
-102 -48 -68 0
-102 -50 -54 0
-102 -50 -56 0
-102 -50 -58 0
-102 -50 -62 0
-102 -50 -64 0
-102 -50 -68 0
-102 -54 -56 0
-102 -54 -58 0
-102 -54 -62 0
-102 -54 -64 0
-102 -54 -68 0
-102 -56 -58 0
-102 -56 -62 0
-102 -56 -64 0
-102 -56 -68 0
-102 -58 -62 0
-102 -58 -64 0
-102 -58 -68 0
-102 -62 -64 0
-102 -62 -68 0
-102 -64 -68 0
-31 -32 0
103 104 0
-103 1 7 9 11 13 15 21 23 25 27 29 53 55 57 59 61 63 65 67 69 71 0
-103 -1 -7 0
-103 -1 -9 0
-103 -1 -11 0
-103 -1 -13 0
-103 -1 -15 0
-103 -1 -21 0
-103 -1 -23 0
-103 -1 -25 0
-103 -1 -27 0
-103 -1 -29 0
-103 -1 -53 0
-103 -1 -55 0
-103 -1 -57 0
-103 -1 -59 0
-103 -1 -61 0
-103 -1 -63 0
-103 -1 -65 0
-103 -1 -67 0
-103 -1 -69 0
-103 -1 -71 0
-103 -7 -9 0
-103 -7 -11 0
-103 -7 -13 0
-103 -7 -15 0
-103 -7 -21 0
-103 -7 -23 0
-103 -7 -25 0
-103 -7 -27 0
-103 -7 -29 0
-103 -7 -53 0
-103 -7 -55 0
-103 -7 -57 0
-103 -7 -59 0
-103 -7 -61 0
-103 -7 -63 0
-103 -7 -65 0
-103 -7 -67 0
-103 -7 -69 0
-103 -7 -71 0
-103 -9 -11 0
-103 -9 -13 0
-103 -9 -15 0
-103 -9 -21 0
-103 -9 -23 0
-103 -9 -25 0
-103 -9 -27 0
-103 -9 -29 0
-103 -9 -53 0
-103 -9 -55 0
-103 -9 -57 0
-103 -9 -59 0
-103 -9 -61 0
-103 -9 -63 0
-103 -9 -65 0
-103 -9 -67 0
-103 -9 -69 0
-103 -9 -71 0
-103 -11 -13 0
-103 -11 -15 0
-103 -11 -21 0
-103 -11 -23 0
-103 -11 -25 0
-103 -11 -27 0
-103 -11 -29 0
-103 -11 -53 0
-103 -11 -55 0
-103 -11 -57 0
-103 -11 -59 0
-103 -11 -61 0
-103 -11 -63 0
-103 -11 -65 0
-103 -11 -67 0
-103 -11 -69 0
-103 -11 -71 0
-103 -13 -15 0
-103 -13 -21 0
-103 -13 -23 0
-103 -13 -25 0
-103 -13 -27 0
-103 -13 -29 0
-103 -13 -53 0
-103 -13 -55 0
-103 -13 -57 0
-103 -13 -59 0
-103 -13 -61 0
-103 -13 -63 0
-103 -13 -65 0
-103 -13 -67 0
-103 -13 -69 0
-103 -13 -71 0
-103 -15 -21 0
-103 -15 -23 0
-103 -15 -25 0
-103 -15 -27 0
-103 -15 -29 0
-103 -15 -53 0
-103 -15 -55 0
-103 -15 -57 0
-103 -15 -59 0
-103 -15 -61 0
-103 -15 -63 0
-103 -15 -65 0
-103 -15 -67 0
-103 -15 -69 0
-103 -15 -71 0
-103 -21 -23 0
-103 -21 -25 0
-103 -21 -27 0
-103 -21 -29 0
-103 -21 -53 0
-103 -21 -55 0
-103 -21 -57 0
-103 -21 -59 0
-103 -21 -61 0
-103 -21 -63 0
-103 -21 -65 0
-103 -21 -67 0
-103 -21 -69 0
-103 -21 -71 0
-103 -23 -25 0
-103 -23 -27 0
-103 -23 -29 0
-103 -23 -53 0
-103 -23 -55 0
-103 -23 -57 0
-103 -23 -59 0
-103 -23 -61 0
-103 -23 -63 0
-103 -23 -65 0
-103 -23 -67 0
-103 -23 -69 0
-103 -23 -71 0
-103 -25 -27 0
-103 -25 -29 0
-103 -25 -53 0
-103 -25 -55 0
-103 -25 -57 0
-103 -25 -59 0
-103 -25 -61 0
-103 -25 -63 0
-103 -25 -65 0
-103 -25 -67 0
-103 -25 -69 0
-103 -25 -71 0
-103 -27 -29 0
-103 -27 -53 0
-103 -27 -55 0
-103 -27 -57 0
-103 -27 -59 0
-103 -27 -61 0
-103 -27 -63 0
-103 -27 -65 0
-103 -27 -67 0
-103 -27 -69 0
-103 -27 -71 0
-103 -29 -53 0
-103 -29 -55 0
-103 -29 -57 0
-103 -29 -59 0
-103 -29 -61 0
-103 -29 -63 0
-103 -29 -65 0
-103 -29 -67 0
-103 -29 -69 0
-103 -29 -71 0
-103 -53 -55 0
-103 -53 -57 0
-103 -53 -59 0
-103 -53 -61 0
-103 -53 -63 0
-103 -53 -65 0
-103 -53 -67 0
-103 -53 -69 0
-103 -53 -71 0
-103 -55 -57 0
-103 -55 -59 0
-103 -55 -61 0
-103 -55 -63 0
-103 -55 -65 0
-103 -55 -67 0
-103 -55 -69 0
-103 -55 -71 0
-103 -57 -59 0
-103 -57 -61 0
-103 -57 -63 0
-103 -57 -65 0
-103 -57 -67 0
-103 -57 -69 0
-103 -57 -71 0
-103 -59 -61 0
-103 -59 -63 0
-103 -59 -65 0
-103 -59 -67 0
-103 -59 -69 0
-103 -59 -71 0
-103 -61 -63 0
-103 -61 -65 0
-103 -61 -67 0
-103 -61 -69 0
-103 -61 -71 0
-103 -63 -65 0
-103 -63 -67 0
-103 -63 -69 0
-103 -63 -71 0
-103 -65 -67 0
-103 -65 -69 0
-103 -65 -71 0
-103 -67 -69 0
-103 -67 -71 0
-103 -69 -71 0
-104 2 8 10 12 14 16 22 24 26 28 30 54 56 58 60 62 64 66 68 70 72 0
-104 -2 -8 0
-104 -2 -10 0
-104 -2 -12 0
-104 -2 -14 0
-104 -2 -16 0
-104 -2 -22 0
-104 -2 -24 0
-104 -2 -26 0
-104 -2 -28 0
-104 -2 -30 0
-104 -2 -54 0
-104 -2 -56 0
-104 -2 -58 0
-104 -2 -60 0
-104 -2 -62 0
-104 -2 -64 0
-104 -2 -66 0
-104 -2 -68 0
-104 -2 -70 0
-104 -2 -72 0
-104 -8 -10 0
-104 -8 -12 0
-104 -8 -14 0
-104 -8 -16 0
-104 -8 -22 0
-104 -8 -24 0
-104 -8 -26 0
-104 -8 -28 0
-104 -8 -30 0
-104 -8 -54 0
-104 -8 -56 0
-104 -8 -58 0
-104 -8 -60 0
-104 -8 -62 0
-104 -8 -64 0
-104 -8 -66 0
-104 -8 -68 0
-104 -8 -70 0
-104 -8 -72 0
-104 -10 -12 0
-104 -10 -14 0
-104 -10 -16 0
-104 -10 -22 0
-104 -10 -24 0
-104 -10 -26 0
-104 -10 -28 0
-104 -10 -30 0
-104 -10 -54 0
-104 -10 -56 0
-104 -10 -58 0
-104 -10 -60 0
-104 -10 -62 0
-104 -10 -64 0
-104 -10 -66 0
-104 -10 -68 0
-104 -10 -70 0
-104 -10 -72 0
-104 -12 -14 0
-104 -12 -16 0
-104 -12 -22 0
-104 -12 -24 0
-104 -12 -26 0
-104 -12 -28 0
-104 -12 -30 0
-104 -12 -54 0
-104 -12 -56 0
-104 -12 -58 0
-104 -12 -60 0
-104 -12 -62 0
-104 -12 -64 0
-104 -12 -66 0
-104 -12 -68 0
-104 -12 -70 0
-104 -12 -72 0
-104 -14 -16 0
-104 -14 -22 0
-104 -14 -24 0
-104 -14 -26 0
-104 -14 -28 0
-104 -14 -30 0
-104 -14 -54 0
-104 -14 -56 0
-104 -14 -58 0
-104 -14 -60 0
-104 -14 -62 0
-104 -14 -64 0
-104 -14 -66 0
-104 -14 -68 0
-104 -14 -70 0
-104 -14 -72 0
-104 -16 -22 0
-104 -16 -24 0
-104 -16 -26 0
-104 -16 -28 0
-104 -16 -30 0
-104 -16 -54 0
-104 -16 -56 0
-104 -16 -58 0
-104 -16 -60 0
-104 -16 -62 0
-104 -16 -64 0
-104 -16 -66 0
-104 -16 -68 0
-104 -16 -70 0
-104 -16 -72 0
-104 -22 -24 0
-104 -22 -26 0
-104 -22 -28 0
-104 -22 -30 0
-104 -22 -54 0
-104 -22 -56 0
-104 -22 -58 0
-104 -22 -60 0
-104 -22 -62 0
-104 -22 -64 0
-104 -22 -66 0
-104 -22 -68 0
-104 -22 -70 0
-104 -22 -72 0
-104 -24 -26 0
-104 -24 -28 0
-104 -24 -30 0
-104 -24 -54 0
-104 -24 -56 0
-104 -24 -58 0
-104 -24 -60 0
-104 -24 -62 0
-104 -24 -64 0
-104 -24 -66 0
-104 -24 -68 0
-104 -24 -70 0
-104 -24 -72 0
-104 -26 -28 0
-104 -26 -30 0
-104 -26 -54 0
-104 -26 -56 0
-104 -26 -58 0
-104 -26 -60 0
-104 -26 -62 0
-104 -26 -64 0
-104 -26 -66 0
-104 -26 -68 0
-104 -26 -70 0
-104 -26 -72 0
-104 -28 -30 0
-104 -28 -54 0
-104 -28 -56 0
-104 -28 -58 0
-104 -28 -60 0
-104 -28 -62 0
-104 -28 -64 0
-104 -28 -66 0
-104 -28 -68 0
-104 -28 -70 0
-104 -28 -72 0
-104 -30 -54 0
-104 -30 -56 0
-104 -30 -58 0
-104 -30 -60 0
-104 -30 -62 0
-104 -30 -64 0
-104 -30 -66 0
-104 -30 -68 0
-104 -30 -70 0
-104 -30 -72 0
-104 -54 -56 0
-104 -54 -58 0
-104 -54 -60 0
-104 -54 -62 0
-104 -54 -64 0
-104 -54 -66 0
-104 -54 -68 0
-104 -54 -70 0
-104 -54 -72 0
-104 -56 -58 0
-104 -56 -60 0
-104 -56 -62 0
-104 -56 -64 0
-104 -56 -66 0
-104 -56 -68 0
-104 -56 -70 0
-104 -56 -72 0
-104 -58 -60 0
-104 -58 -62 0
-104 -58 -64 0
-104 -58 -66 0
-104 -58 -68 0
-104 -58 -70 0
-104 -58 -72 0
-104 -60 -62 0
-104 -60 -64 0
-104 -60 -66 0
-104 -60 -68 0
-104 -60 -70 0
-104 -60 -72 0
-104 -62 -64 0
-104 -62 -66 0
-104 -62 -68 0
-104 -62 -70 0
-104 -62 -72 0
-104 -64 -66 0
-104 -64 -68 0
-104 -64 -70 0
-104 -64 -72 0
-104 -66 -68 0
-104 -66 -70 0
-104 -66 -72 0
-104 -68 -70 0
-104 -68 -72 0
-104 -70 -72 0
-33 -34 0
105 106 0
-105 1 5 9 11 13 15 19 23 25 27 29 45 47 49 51 61 63 65 67 69 71 0
-105 -1 -5 0
-105 -1 -9 0
-105 -1 -11 0
-105 -1 -13 0
-105 -1 -15 0
-105 -1 -19 0
-105 -1 -23 0
-105 -1 -25 0
-105 -1 -27 0
-105 -1 -29 0
-105 -1 -45 0
-105 -1 -47 0
-105 -1 -49 0
-105 -1 -51 0
-105 -1 -61 0
-105 -1 -63 0
-105 -1 -65 0
-105 -1 -67 0
-105 -1 -69 0
-105 -1 -71 0
-105 -5 -9 0
-105 -5 -11 0
-105 -5 -13 0
-105 -5 -15 0
-105 -5 -19 0
-105 -5 -23 0
-105 -5 -25 0
-105 -5 -27 0
-105 -5 -29 0
-105 -5 -45 0
-105 -5 -47 0
-105 -5 -49 0
-105 -5 -51 0
-105 -5 -61 0
-105 -5 -63 0
-105 -5 -65 0
-105 -5 -67 0
-105 -5 -69 0
-105 -5 -71 0
-105 -9 -11 0
-105 -9 -13 0
-105 -9 -15 0
-105 -9 -19 0
-105 -9 -23 0
-105 -9 -25 0
-105 -9 -27 0
-105 -9 -29 0
-105 -9 -45 0
-105 -9 -47 0
-105 -9 -49 0
-105 -9 -51 0
-105 -9 -61 0
-105 -9 -63 0
-105 -9 -65 0
-105 -9 -67 0
-105 -9 -69 0
-105 -9 -71 0
-105 -11 -13 0
-105 -11 -15 0
-105 -11 -19 0
-105 -11 -23 0
-105 -11 -25 0
-105 -11 -27 0
-105 -11 -29 0
-105 -11 -45 0
-105 -11 -47 0
-105 -11 -49 0
-105 -11 -51 0
-105 -11 -61 0
-105 -11 -63 0
-105 -11 -65 0
-105 -11 -67 0
-105 -11 -69 0
-105 -11 -71 0
-105 -13 -15 0
-105 -13 -19 0
-105 -13 -23 0
-105 -13 -25 0
-105 -13 -27 0
-105 -13 -29 0
-105 -13 -45 0
-105 -13 -47 0
-105 -13 -49 0
-105 -13 -51 0
-105 -13 -61 0
-105 -13 -63 0
-105 -13 -65 0
-105 -13 -67 0
-105 -13 -69 0
-105 -13 -71 0
-105 -15 -19 0
-105 -15 -23 0
-105 -15 -25 0
-105 -15 -27 0
-105 -15 -29 0
-105 -15 -45 0
-105 -15 -47 0
-105 -15 -49 0
-105 -15 -51 0
-105 -15 -61 0
-105 -15 -63 0
-105 -15 -65 0
-105 -15 -67 0
-105 -15 -69 0
-105 -15 -71 0
-105 -19 -23 0
-105 -19 -25 0
-105 -19 -27 0
-105 -19 -29 0
-105 -19 -45 0
-105 -19 -47 0
-105 -19 -49 0
-105 -19 -51 0
-105 -19 -61 0
-105 -19 -63 0
-105 -19 -65 0
-105 -19 -67 0
-105 -19 -69 0
-105 -19 -71 0
-105 -23 -25 0
-105 -23 -27 0
-105 -23 -29 0
-105 -23 -45 0
-105 -23 -47 0
-105 -23 -49 0
-105 -23 -51 0
-105 -23 -61 0
-105 -23 -63 0
-105 -23 -65 0
-105 -23 -67 0
-105 -23 -69 0
-105 -23 -71 0
-105 -25 -27 0
-105 -25 -29 0
-105 -25 -45 0
-105 -25 -47 0
-105 -25 -49 0
-105 -25 -51 0
-105 -25 -61 0
-105 -25 -63 0
-105 -25 -65 0
-105 -25 -67 0
-105 -25 -69 0
-105 -25 -71 0
-105 -27 -29 0
-105 -27 -45 0
-105 -27 -47 0
-105 -27 -49 0
-105 -27 -51 0
-105 -27 -61 0
-105 -27 -63 0
-105 -27 -65 0
-105 -27 -67 0
-105 -27 -69 0
-105 -27 -71 0
-105 -29 -45 0
-105 -29 -47 0
-105 -29 -49 0
-105 -29 -51 0
-105 -29 -61 0
-105 -29 -63 0
-105 -29 -65 0
-105 -29 -67 0
-105 -29 -69 0
-105 -29 -71 0
-105 -45 -47 0
-105 -45 -49 0
-105 -45 -51 0
-105 -45 -61 0
-105 -45 -63 0
-105 -45 -65 0
-105 -45 -67 0
-105 -45 -69 0
-105 -45 -71 0
-105 -47 -49 0
-105 -47 -51 0
-105 -47 -61 0
-105 -47 -63 0
-105 -47 -65 0
-105 -47 -67 0
-105 -47 -69 0
-105 -47 -71 0
-105 -49 -51 0
-105 -49 -61 0
-105 -49 -63 0
-105 -49 -65 0
-105 -49 -67 0
-105 -49 -69 0
-105 -49 -71 0
-105 -51 -61 0
-105 -51 -63 0
-105 -51 -65 0
-105 -51 -67 0
-105 -51 -69 0
-105 -51 -71 0
-105 -61 -63 0
-105 -61 -65 0
-105 -61 -67 0
-105 -61 -69 0
-105 -61 -71 0
-105 -63 -65 0
-105 -63 -67 0
-105 -63 -69 0
-105 -63 -71 0
-105 -65 -67 0
-105 -65 -69 0
-105 -65 -71 0
-105 -67 -69 0
-105 -67 -71 0
-105 -69 -71 0
-106 2 6 10 12 14 16 20 24 26 28 30 46 48 50 52 62 64 66 68 70 72 0
-106 -2 -6 0
-106 -2 -10 0
-106 -2 -12 0
-106 -2 -14 0
-106 -2 -16 0
-106 -2 -20 0
-106 -2 -24 0
-106 -2 -26 0
-106 -2 -28 0
-106 -2 -30 0
-106 -2 -46 0
-106 -2 -48 0
-106 -2 -50 0
-106 -2 -52 0
-106 -2 -62 0
-106 -2 -64 0
-106 -2 -66 0
-106 -2 -68 0
-106 -2 -70 0
-106 -2 -72 0
-106 -6 -10 0
-106 -6 -12 0
-106 -6 -14 0
-106 -6 -16 0
-106 -6 -20 0
-106 -6 -24 0
-106 -6 -26 0
-106 -6 -28 0
-106 -6 -30 0
-106 -6 -46 0
-106 -6 -48 0
-106 -6 -50 0
-106 -6 -52 0
-106 -6 -62 0
-106 -6 -64 0
-106 -6 -66 0
-106 -6 -68 0
-106 -6 -70 0
-106 -6 -72 0
-106 -10 -12 0
-106 -10 -14 0
-106 -10 -16 0
-106 -10 -20 0
-106 -10 -24 0
-106 -10 -26 0
-106 -10 -28 0
-106 -10 -30 0
-106 -10 -46 0
-106 -10 -48 0
-106 -10 -50 0
-106 -10 -52 0
-106 -10 -62 0
-106 -10 -64 0
-106 -10 -66 0
-106 -10 -68 0
-106 -10 -70 0
-106 -10 -72 0
-106 -12 -14 0
-106 -12 -16 0
-106 -12 -20 0
-106 -12 -24 0
-106 -12 -26 0
-106 -12 -28 0
-106 -12 -30 0
-106 -12 -46 0
-106 -12 -48 0
-106 -12 -50 0
-106 -12 -52 0
-106 -12 -62 0
-106 -12 -64 0
-106 -12 -66 0
-106 -12 -68 0
-106 -12 -70 0
-106 -12 -72 0
-106 -14 -16 0
-106 -14 -20 0
-106 -14 -24 0
-106 -14 -26 0
-106 -14 -28 0
-106 -14 -30 0
-106 -14 -46 0
-106 -14 -48 0
-106 -14 -50 0
-106 -14 -52 0
-106 -14 -62 0
-106 -14 -64 0
-106 -14 -66 0
-106 -14 -68 0
-106 -14 -70 0
-106 -14 -72 0
-106 -16 -20 0
-106 -16 -24 0
-106 -16 -26 0
-106 -16 -28 0
-106 -16 -30 0
-106 -16 -46 0
-106 -16 -48 0
-106 -16 -50 0
-106 -16 -52 0
-106 -16 -62 0
-106 -16 -64 0
-106 -16 -66 0
-106 -16 -68 0
-106 -16 -70 0
-106 -16 -72 0
-106 -20 -24 0
-106 -20 -26 0
-106 -20 -28 0
-106 -20 -30 0
-106 -20 -46 0
-106 -20 -48 0
-106 -20 -50 0
-106 -20 -52 0
-106 -20 -62 0
-106 -20 -64 0
-106 -20 -66 0
-106 -20 -68 0
-106 -20 -70 0
-106 -20 -72 0
-106 -24 -26 0
-106 -24 -28 0
-106 -24 -30 0
-106 -24 -46 0
-106 -24 -48 0
-106 -24 -50 0
-106 -24 -52 0
-106 -24 -62 0
-106 -24 -64 0
-106 -24 -66 0
-106 -24 -68 0
-106 -24 -70 0
-106 -24 -72 0
-106 -26 -28 0
-106 -26 -30 0
-106 -26 -46 0
-106 -26 -48 0
-106 -26 -50 0
-106 -26 -52 0
-106 -26 -62 0
-106 -26 -64 0
-106 -26 -66 0
-106 -26 -68 0
-106 -26 -70 0
-106 -26 -72 0
-106 -28 -30 0
-106 -28 -46 0
-106 -28 -48 0
-106 -28 -50 0
-106 -28 -52 0
-106 -28 -62 0
-106 -28 -64 0
-106 -28 -66 0
-106 -28 -68 0
-106 -28 -70 0
-106 -28 -72 0
-106 -30 -46 0
-106 -30 -48 0
-106 -30 -50 0
-106 -30 -52 0
-106 -30 -62 0
-106 -30 -64 0
-106 -30 -66 0
-106 -30 -68 0
-106 -30 -70 0
-106 -30 -72 0
-106 -46 -48 0
-106 -46 -50 0
-106 -46 -52 0
-106 -46 -62 0
-106 -46 -64 0
-106 -46 -66 0
-106 -46 -68 0
-106 -46 -70 0
-106 -46 -72 0
-106 -48 -50 0
-106 -48 -52 0
-106 -48 -62 0
-106 -48 -64 0
-106 -48 -66 0
-106 -48 -68 0
-106 -48 -70 0
-106 -48 -72 0
-106 -50 -52 0
-106 -50 -62 0
-106 -50 -64 0
-106 -50 -66 0
-106 -50 -68 0
-106 -50 -70 0
-106 -50 -72 0
-106 -52 -62 0
-106 -52 -64 0
-106 -52 -66 0
-106 -52 -68 0
-106 -52 -70 0
-106 -52 -72 0
-106 -62 -64 0
-106 -62 -66 0
-106 -62 -68 0
-106 -62 -70 0
-106 -62 -72 0
-106 -64 -66 0
-106 -64 -68 0
-106 -64 -70 0
-106 -64 -72 0
-106 -66 -68 0
-106 -66 -70 0
-106 -66 -72 0
-106 -68 -70 0
-106 -68 -72 0
-106 -70 -72 0
-35 -36 0
107 108 0
-107 1 5 7 11 13 15 19 21 25 27 29 43 47 49 51 55 57 59 67 69 71 0
-107 -1 -5 0
-107 -1 -7 0
-107 -1 -11 0
-107 -1 -13 0
-107 -1 -15 0
-107 -1 -19 0
-107 -1 -21 0
-107 -1 -25 0
-107 -1 -27 0
-107 -1 -29 0
-107 -1 -43 0
-107 -1 -47 0
-107 -1 -49 0
-107 -1 -51 0
-107 -1 -55 0
-107 -1 -57 0
-107 -1 -59 0
-107 -1 -67 0
-107 -1 -69 0
-107 -1 -71 0
-107 -5 -7 0
-107 -5 -11 0
-107 -5 -13 0
-107 -5 -15 0
-107 -5 -19 0
-107 -5 -21 0
-107 -5 -25 0
-107 -5 -27 0
-107 -5 -29 0
-107 -5 -43 0
-107 -5 -47 0
-107 -5 -49 0
-107 -5 -51 0
-107 -5 -55 0
-107 -5 -57 0
-107 -5 -59 0
-107 -5 -67 0
-107 -5 -69 0
-107 -5 -71 0
-107 -7 -11 0
-107 -7 -13 0
-107 -7 -15 0
-107 -7 -19 0
-107 -7 -21 0
-107 -7 -25 0
-107 -7 -27 0
-107 -7 -29 0
-107 -7 -43 0
-107 -7 -47 0
-107 -7 -49 0
-107 -7 -51 0
-107 -7 -55 0
-107 -7 -57 0
-107 -7 -59 0
-107 -7 -67 0
-107 -7 -69 0
-107 -7 -71 0
-107 -11 -13 0
-107 -11 -15 0
-107 -11 -19 0
-107 -11 -21 0
-107 -11 -25 0
-107 -11 -27 0
-107 -11 -29 0
-107 -11 -43 0
-107 -11 -47 0
-107 -11 -49 0
-107 -11 -51 0
-107 -11 -55 0
-107 -11 -57 0
-107 -11 -59 0
-107 -11 -67 0
-107 -11 -69 0
-107 -11 -71 0
-107 -13 -15 0
-107 -13 -19 0
-107 -13 -21 0
-107 -13 -25 0
-107 -13 -27 0
-107 -13 -29 0
-107 -13 -43 0
-107 -13 -47 0
-107 -13 -49 0
-107 -13 -51 0
-107 -13 -55 0
-107 -13 -57 0
-107 -13 -59 0
-107 -13 -67 0
-107 -13 -69 0
-107 -13 -71 0
-107 -15 -19 0
-107 -15 -21 0
-107 -15 -25 0
-107 -15 -27 0
-107 -15 -29 0
-107 -15 -43 0
-107 -15 -47 0
-107 -15 -49 0
-107 -15 -51 0
-107 -15 -55 0
-107 -15 -57 0
-107 -15 -59 0
-107 -15 -67 0
-107 -15 -69 0
-107 -15 -71 0
-107 -19 -21 0
-107 -19 -25 0
-107 -19 -27 0
-107 -19 -29 0
-107 -19 -43 0
-107 -19 -47 0
-107 -19 -49 0
-107 -19 -51 0
-107 -19 -55 0
-107 -19 -57 0
-107 -19 -59 0
-107 -19 -67 0
-107 -19 -69 0
-107 -19 -71 0
-107 -21 -25 0
-107 -21 -27 0
-107 -21 -29 0
-107 -21 -43 0
-107 -21 -47 0
-107 -21 -49 0
-107 -21 -51 0
-107 -21 -55 0
-107 -21 -57 0
-107 -21 -59 0
-107 -21 -67 0
-107 -21 -69 0
-107 -21 -71 0
-107 -25 -27 0
-107 -25 -29 0
-107 -25 -43 0
-107 -25 -47 0
-107 -25 -49 0
-107 -25 -51 0
-107 -25 -55 0
-107 -25 -57 0
-107 -25 -59 0
-107 -25 -67 0
-107 -25 -69 0
-107 -25 -71 0
-107 -27 -29 0
-107 -27 -43 0
-107 -27 -47 0
-107 -27 -49 0
-107 -27 -51 0
-107 -27 -55 0
-107 -27 -57 0
-107 -27 -59 0
-107 -27 -67 0
-107 -27 -69 0
-107 -27 -71 0
-107 -29 -43 0
-107 -29 -47 0
-107 -29 -49 0
-107 -29 -51 0
-107 -29 -55 0
-107 -29 -57 0
-107 -29 -59 0
-107 -29 -67 0
-107 -29 -69 0
-107 -29 -71 0
-107 -43 -47 0
-107 -43 -49 0
-107 -43 -51 0
-107 -43 -55 0
-107 -43 -57 0
-107 -43 -59 0
-107 -43 -67 0
-107 -43 -69 0
-107 -43 -71 0
-107 -47 -49 0
-107 -47 -51 0
-107 -47 -55 0
-107 -47 -57 0
-107 -47 -59 0
-107 -47 -67 0
-107 -47 -69 0
-107 -47 -71 0
-107 -49 -51 0
-107 -49 -55 0
-107 -49 -57 0
-107 -49 -59 0
-107 -49 -67 0
-107 -49 -69 0
-107 -49 -71 0
-107 -51 -55 0
-107 -51 -57 0
-107 -51 -59 0
-107 -51 -67 0
-107 -51 -69 0
-107 -51 -71 0
-107 -55 -57 0
-107 -55 -59 0
-107 -55 -67 0
-107 -55 -69 0
-107 -55 -71 0
-107 -57 -59 0
-107 -57 -67 0
-107 -57 -69 0
-107 -57 -71 0
-107 -59 -67 0
-107 -59 -69 0
-107 -59 -71 0
-107 -67 -69 0
-107 -67 -71 0
-107 -69 -71 0
-108 2 6 8 12 14 16 20 22 26 28 30 44 48 50 52 56 58 60 68 70 72 0
-108 -2 -6 0
-108 -2 -8 0
-108 -2 -12 0
-108 -2 -14 0
-108 -2 -16 0
-108 -2 -20 0
-108 -2 -22 0
-108 -2 -26 0
-108 -2 -28 0
-108 -2 -30 0
-108 -2 -44 0
-108 -2 -48 0
-108 -2 -50 0
-108 -2 -52 0
-108 -2 -56 0
-108 -2 -58 0
-108 -2 -60 0
-108 -2 -68 0
-108 -2 -70 0
-108 -2 -72 0
-108 -6 -8 0
-108 -6 -12 0
-108 -6 -14 0
-108 -6 -16 0
-108 -6 -20 0
-108 -6 -22 0
-108 -6 -26 0
-108 -6 -28 0
-108 -6 -30 0
-108 -6 -44 0
-108 -6 -48 0
-108 -6 -50 0
-108 -6 -52 0
-108 -6 -56 0
-108 -6 -58 0
-108 -6 -60 0
-108 -6 -68 0
-108 -6 -70 0
-108 -6 -72 0
-108 -8 -12 0
-108 -8 -14 0
-108 -8 -16 0
-108 -8 -20 0
-108 -8 -22 0
-108 -8 -26 0
-108 -8 -28 0
-108 -8 -30 0
-108 -8 -44 0
-108 -8 -48 0
-108 -8 -50 0
-108 -8 -52 0
-108 -8 -56 0
-108 -8 -58 0
-108 -8 -60 0
-108 -8 -68 0
-108 -8 -70 0
-108 -8 -72 0
-108 -12 -14 0
-108 -12 -16 0
-108 -12 -20 0
-108 -12 -22 0
-108 -12 -26 0
-108 -12 -28 0
-108 -12 -30 0
-108 -12 -44 0
-108 -12 -48 0
-108 -12 -50 0
-108 -12 -52 0
-108 -12 -56 0
-108 -12 -58 0
-108 -12 -60 0
-108 -12 -68 0
-108 -12 -70 0
-108 -12 -72 0
-108 -14 -16 0
-108 -14 -20 0
-108 -14 -22 0
-108 -14 -26 0
-108 -14 -28 0
-108 -14 -30 0
-108 -14 -44 0
-108 -14 -48 0
-108 -14 -50 0
-108 -14 -52 0
-108 -14 -56 0
-108 -14 -58 0
-108 -14 -60 0
-108 -14 -68 0
-108 -14 -70 0
-108 -14 -72 0
-108 -16 -20 0
-108 -16 -22 0
-108 -16 -26 0
-108 -16 -28 0
-108 -16 -30 0
-108 -16 -44 0
-108 -16 -48 0
-108 -16 -50 0
-108 -16 -52 0
-108 -16 -56 0
-108 -16 -58 0
-108 -16 -60 0
-108 -16 -68 0
-108 -16 -70 0
-108 -16 -72 0
-108 -20 -22 0
-108 -20 -26 0
-108 -20 -28 0
-108 -20 -30 0
-108 -20 -44 0
-108 -20 -48 0
-108 -20 -50 0
-108 -20 -52 0
-108 -20 -56 0
-108 -20 -58 0
-108 -20 -60 0
-108 -20 -68 0
-108 -20 -70 0
-108 -20 -72 0
-108 -22 -26 0
-108 -22 -28 0
-108 -22 -30 0
-108 -22 -44 0
-108 -22 -48 0
-108 -22 -50 0
-108 -22 -52 0
-108 -22 -56 0
-108 -22 -58 0
-108 -22 -60 0
-108 -22 -68 0
-108 -22 -70 0
-108 -22 -72 0
-108 -26 -28 0
-108 -26 -30 0
-108 -26 -44 0
-108 -26 -48 0
-108 -26 -50 0
-108 -26 -52 0
-108 -26 -56 0
-108 -26 -58 0
-108 -26 -60 0
-108 -26 -68 0
-108 -26 -70 0
-108 -26 -72 0
-108 -28 -30 0
-108 -28 -44 0
-108 -28 -48 0
-108 -28 -50 0
-108 -28 -52 0
-108 -28 -56 0
-108 -28 -58 0
-108 -28 -60 0
-108 -28 -68 0
-108 -28 -70 0
-108 -28 -72 0
-108 -30 -44 0
-108 -30 -48 0
-108 -30 -50 0
-108 -30 -52 0
-108 -30 -56 0
-108 -30 -58 0
-108 -30 -60 0
-108 -30 -68 0
-108 -30 -70 0
-108 -30 -72 0
-108 -44 -48 0
-108 -44 -50 0
-108 -44 -52 0
-108 -44 -56 0
-108 -44 -58 0
-108 -44 -60 0
-108 -44 -68 0
-108 -44 -70 0
-108 -44 -72 0
-108 -48 -50 0
-108 -48 -52 0
-108 -48 -56 0
-108 -48 -58 0
-108 -48 -60 0
-108 -48 -68 0
-108 -48 -70 0
-108 -48 -72 0
-108 -50 -52 0
-108 -50 -56 0
-108 -50 -58 0
-108 -50 -60 0
-108 -50 -68 0
-108 -50 -70 0
-108 -50 -72 0
-108 -52 -56 0
-108 -52 -58 0
-108 -52 -60 0
-108 -52 -68 0
-108 -52 -70 0
-108 -52 -72 0
-108 -56 -58 0
-108 -56 -60 0
-108 -56 -68 0
-108 -56 -70 0
-108 -56 -72 0
-108 -58 -60 0
-108 -58 -68 0
-108 -58 -70 0
-108 -58 -72 0
-108 -60 -68 0
-108 -60 -70 0
-108 -60 -72 0
-108 -68 -70 0
-108 -68 -72 0
-108 -70 -72 0
-37 -38 0
109 110 0
-109 1 5 7 9 13 15 19 21 23 27 29 43 45 49 51 53 57 59 63 65 71 0
-109 -1 -5 0
-109 -1 -7 0
-109 -1 -9 0
-109 -1 -13 0
-109 -1 -15 0
-109 -1 -19 0
-109 -1 -21 0
-109 -1 -23 0
-109 -1 -27 0
-109 -1 -29 0
-109 -1 -43 0
-109 -1 -45 0
-109 -1 -49 0
-109 -1 -51 0
-109 -1 -53 0
-109 -1 -57 0
-109 -1 -59 0
-109 -1 -63 0
-109 -1 -65 0
-109 -1 -71 0
-109 -5 -7 0
-109 -5 -9 0
-109 -5 -13 0
-109 -5 -15 0
-109 -5 -19 0
-109 -5 -21 0
-109 -5 -23 0
-109 -5 -27 0
-109 -5 -29 0
-109 -5 -43 0
-109 -5 -45 0
-109 -5 -49 0
-109 -5 -51 0
-109 -5 -53 0
-109 -5 -57 0
-109 -5 -59 0
-109 -5 -63 0
-109 -5 -65 0
-109 -5 -71 0
-109 -7 -9 0
-109 -7 -13 0
-109 -7 -15 0
-109 -7 -19 0
-109 -7 -21 0
-109 -7 -23 0
-109 -7 -27 0
-109 -7 -29 0
-109 -7 -43 0
-109 -7 -45 0
-109 -7 -49 0
-109 -7 -51 0
-109 -7 -53 0
-109 -7 -57 0
-109 -7 -59 0
-109 -7 -63 0
-109 -7 -65 0
-109 -7 -71 0
-109 -9 -13 0
-109 -9 -15 0
-109 -9 -19 0
-109 -9 -21 0
-109 -9 -23 0
-109 -9 -27 0
-109 -9 -29 0
-109 -9 -43 0
-109 -9 -45 0
-109 -9 -49 0
-109 -9 -51 0
-109 -9 -53 0
-109 -9 -57 0
-109 -9 -59 0
-109 -9 -63 0
-109 -9 -65 0
-109 -9 -71 0
-109 -13 -15 0
-109 -13 -19 0
-109 -13 -21 0
-109 -13 -23 0
-109 -13 -27 0
-109 -13 -29 0
-109 -13 -43 0
-109 -13 -45 0
-109 -13 -49 0
-109 -13 -51 0
-109 -13 -53 0
-109 -13 -57 0
-109 -13 -59 0
-109 -13 -63 0
-109 -13 -65 0
-109 -13 -71 0
-109 -15 -19 0
-109 -15 -21 0
-109 -15 -23 0
-109 -15 -27 0
-109 -15 -29 0
-109 -15 -43 0
-109 -15 -45 0
-109 -15 -49 0
-109 -15 -51 0
-109 -15 -53 0
-109 -15 -57 0
-109 -15 -59 0
-109 -15 -63 0
-109 -15 -65 0
-109 -15 -71 0
-109 -19 -21 0
-109 -19 -23 0
-109 -19 -27 0
-109 -19 -29 0
-109 -19 -43 0
-109 -19 -45 0
-109 -19 -49 0
-109 -19 -51 0
-109 -19 -53 0
-109 -19 -57 0
-109 -19 -59 0
-109 -19 -63 0
-109 -19 -65 0
-109 -19 -71 0
-109 -21 -23 0
-109 -21 -27 0
-109 -21 -29 0
-109 -21 -43 0
-109 -21 -45 0
-109 -21 -49 0
-109 -21 -51 0
-109 -21 -53 0
-109 -21 -57 0
-109 -21 -59 0
-109 -21 -63 0
-109 -21 -65 0
-109 -21 -71 0
-109 -23 -27 0
-109 -23 -29 0
-109 -23 -43 0
-109 -23 -45 0
-109 -23 -49 0
-109 -23 -51 0
-109 -23 -53 0
-109 -23 -57 0
-109 -23 -59 0
-109 -23 -63 0
-109 -23 -65 0
-109 -23 -71 0
-109 -27 -29 0
-109 -27 -43 0
-109 -27 -45 0
-109 -27 -49 0
-109 -27 -51 0
-109 -27 -53 0
-109 -27 -57 0
-109 -27 -59 0
-109 -27 -63 0
-109 -27 -65 0
-109 -27 -71 0
-109 -29 -43 0
-109 -29 -45 0
-109 -29 -49 0
-109 -29 -51 0
-109 -29 -53 0
-109 -29 -57 0
-109 -29 -59 0
-109 -29 -63 0
-109 -29 -65 0
-109 -29 -71 0
-109 -43 -45 0
-109 -43 -49 0
-109 -43 -51 0
-109 -43 -53 0
-109 -43 -57 0
-109 -43 -59 0
-109 -43 -63 0
-109 -43 -65 0
-109 -43 -71 0
-109 -45 -49 0
-109 -45 -51 0
-109 -45 -53 0
-109 -45 -57 0
-109 -45 -59 0
-109 -45 -63 0
-109 -45 -65 0
-109 -45 -71 0
-109 -49 -51 0
-109 -49 -53 0
-109 -49 -57 0
-109 -49 -59 0
-109 -49 -63 0
-109 -49 -65 0
-109 -49 -71 0
-109 -51 -53 0
-109 -51 -57 0
-109 -51 -59 0
-109 -51 -63 0
-109 -51 -65 0
-109 -51 -71 0
-109 -53 -57 0
-109 -53 -59 0
-109 -53 -63 0
-109 -53 -65 0
-109 -53 -71 0
-109 -57 -59 0
-109 -57 -63 0
-109 -57 -65 0
-109 -57 -71 0
-109 -59 -63 0
-109 -59 -65 0
-109 -59 -71 0
-109 -63 -65 0
-109 -63 -71 0
-109 -65 -71 0
-110 2 6 8 10 14 16 20 22 24 28 30 44 46 50 52 54 58 60 64 66 72 0
-110 -2 -6 0
-110 -2 -8 0
-110 -2 -10 0
-110 -2 -14 0
-110 -2 -16 0
-110 -2 -20 0
-110 -2 -22 0
-110 -2 -24 0
-110 -2 -28 0
-110 -2 -30 0
-110 -2 -44 0
-110 -2 -46 0
-110 -2 -50 0
-110 -2 -52 0
-110 -2 -54 0
-110 -2 -58 0
-110 -2 -60 0
-110 -2 -64 0
-110 -2 -66 0
-110 -2 -72 0
-110 -6 -8 0
-110 -6 -10 0
-110 -6 -14 0
-110 -6 -16 0
-110 -6 -20 0
-110 -6 -22 0
-110 -6 -24 0
-110 -6 -28 0
-110 -6 -30 0
-110 -6 -44 0
-110 -6 -46 0
-110 -6 -50 0
-110 -6 -52 0
-110 -6 -54 0
-110 -6 -58 0
-110 -6 -60 0
-110 -6 -64 0
-110 -6 -66 0
-110 -6 -72 0
-110 -8 -10 0
-110 -8 -14 0
-110 -8 -16 0
-110 -8 -20 0
-110 -8 -22 0
-110 -8 -24 0
-110 -8 -28 0
-110 -8 -30 0
-110 -8 -44 0
-110 -8 -46 0
-110 -8 -50 0
-110 -8 -52 0
-110 -8 -54 0
-110 -8 -58 0
-110 -8 -60 0
-110 -8 -64 0
-110 -8 -66 0
-110 -8 -72 0
-110 -10 -14 0
-110 -10 -16 0
-110 -10 -20 0
-110 -10 -22 0
-110 -10 -24 0
-110 -10 -28 0
-110 -10 -30 0
-110 -10 -44 0
-110 -10 -46 0
-110 -10 -50 0
-110 -10 -52 0
-110 -10 -54 0
-110 -10 -58 0
-110 -10 -60 0
-110 -10 -64 0
-110 -10 -66 0
-110 -10 -72 0
-110 -14 -16 0
-110 -14 -20 0
-110 -14 -22 0
-110 -14 -24 0
-110 -14 -28 0
-110 -14 -30 0
-110 -14 -44 0
-110 -14 -46 0
-110 -14 -50 0
-110 -14 -52 0
-110 -14 -54 0
-110 -14 -58 0
-110 -14 -60 0
-110 -14 -64 0
-110 -14 -66 0
-110 -14 -72 0
-110 -16 -20 0
-110 -16 -22 0
-110 -16 -24 0
-110 -16 -28 0
-110 -16 -30 0
-110 -16 -44 0
-110 -16 -46 0
-110 -16 -50 0
-110 -16 -52 0
-110 -16 -54 0
-110 -16 -58 0
-110 -16 -60 0
-110 -16 -64 0
-110 -16 -66 0
-110 -16 -72 0
-110 -20 -22 0
-110 -20 -24 0
-110 -20 -28 0
-110 -20 -30 0
-110 -20 -44 0
-110 -20 -46 0
-110 -20 -50 0
-110 -20 -52 0
-110 -20 -54 0
-110 -20 -58 0
-110 -20 -60 0
-110 -20 -64 0
-110 -20 -66 0
-110 -20 -72 0
-110 -22 -24 0
-110 -22 -28 0
-110 -22 -30 0
-110 -22 -44 0
-110 -22 -46 0
-110 -22 -50 0
-110 -22 -52 0
-110 -22 -54 0
-110 -22 -58 0
-110 -22 -60 0
-110 -22 -64 0
-110 -22 -66 0
-110 -22 -72 0
-110 -24 -28 0
-110 -24 -30 0
-110 -24 -44 0
-110 -24 -46 0
-110 -24 -50 0
-110 -24 -52 0
-110 -24 -54 0
-110 -24 -58 0
-110 -24 -60 0
-110 -24 -64 0
-110 -24 -66 0
-110 -24 -72 0
-110 -28 -30 0
-110 -28 -44 0
-110 -28 -46 0
-110 -28 -50 0
-110 -28 -52 0
-110 -28 -54 0
-110 -28 -58 0
-110 -28 -60 0
-110 -28 -64 0
-110 -28 -66 0
-110 -28 -72 0
-110 -30 -44 0
-110 -30 -46 0
-110 -30 -50 0
-110 -30 -52 0
-110 -30 -54 0
-110 -30 -58 0
-110 -30 -60 0
-110 -30 -64 0
-110 -30 -66 0
-110 -30 -72 0
-110 -44 -46 0
-110 -44 -50 0
-110 -44 -52 0
-110 -44 -54 0
-110 -44 -58 0
-110 -44 -60 0
-110 -44 -64 0
-110 -44 -66 0
-110 -44 -72 0
-110 -46 -50 0
-110 -46 -52 0
-110 -46 -54 0
-110 -46 -58 0
-110 -46 -60 0
-110 -46 -64 0
-110 -46 -66 0
-110 -46 -72 0
-110 -50 -52 0
-110 -50 -54 0
-110 -50 -58 0
-110 -50 -60 0
-110 -50 -64 0
-110 -50 -66 0
-110 -50 -72 0
-110 -52 -54 0
-110 -52 -58 0
-110 -52 -60 0
-110 -52 -64 0
-110 -52 -66 0
-110 -52 -72 0
-110 -54 -58 0
-110 -54 -60 0
-110 -54 -64 0
-110 -54 -66 0
-110 -54 -72 0
-110 -58 -60 0
-110 -58 -64 0
-110 -58 -66 0
-110 -58 -72 0
-110 -60 -64 0
-110 -60 -66 0
-110 -60 -72 0
-110 -64 -66 0
-110 -64 -72 0
-110 -66 -72 0
-39 -40 0
111 112 0
-111 1 5 7 9 11 15 19 21 23 25 29 43 45 47 51 53 55 59 61 65 69 0
-111 -1 -5 0
-111 -1 -7 0
-111 -1 -9 0
-111 -1 -11 0
-111 -1 -15 0
-111 -1 -19 0
-111 -1 -21 0
-111 -1 -23 0
-111 -1 -25 0
-111 -1 -29 0
-111 -1 -43 0
-111 -1 -45 0
-111 -1 -47 0
-111 -1 -51 0
-111 -1 -53 0
-111 -1 -55 0
-111 -1 -59 0
-111 -1 -61 0
-111 -1 -65 0
-111 -1 -69 0
-111 -5 -7 0
-111 -5 -9 0
-111 -5 -11 0
-111 -5 -15 0
-111 -5 -19 0
-111 -5 -21 0
-111 -5 -23 0
-111 -5 -25 0
-111 -5 -29 0
-111 -5 -43 0
-111 -5 -45 0
-111 -5 -47 0
-111 -5 -51 0
-111 -5 -53 0
-111 -5 -55 0
-111 -5 -59 0
-111 -5 -61 0
-111 -5 -65 0
-111 -5 -69 0
-111 -7 -9 0
-111 -7 -11 0
-111 -7 -15 0
-111 -7 -19 0
-111 -7 -21 0
-111 -7 -23 0
-111 -7 -25 0
-111 -7 -29 0
-111 -7 -43 0
-111 -7 -45 0
-111 -7 -47 0
-111 -7 -51 0
-111 -7 -53 0
-111 -7 -55 0
-111 -7 -59 0
-111 -7 -61 0
-111 -7 -65 0
-111 -7 -69 0
-111 -9 -11 0
-111 -9 -15 0
-111 -9 -19 0
-111 -9 -21 0
-111 -9 -23 0
-111 -9 -25 0
-111 -9 -29 0
-111 -9 -43 0
-111 -9 -45 0
-111 -9 -47 0
-111 -9 -51 0
-111 -9 -53 0
-111 -9 -55 0
-111 -9 -59 0
-111 -9 -61 0
-111 -9 -65 0
-111 -9 -69 0
-111 -11 -15 0
-111 -11 -19 0
-111 -11 -21 0
-111 -11 -23 0
-111 -11 -25 0
-111 -11 -29 0
-111 -11 -43 0
-111 -11 -45 0
-111 -11 -47 0
-111 -11 -51 0
-111 -11 -53 0
-111 -11 -55 0
-111 -11 -59 0
-111 -11 -61 0
-111 -11 -65 0
-111 -11 -69 0
-111 -15 -19 0
-111 -15 -21 0
-111 -15 -23 0
-111 -15 -25 0
-111 -15 -29 0
-111 -15 -43 0
-111 -15 -45 0
-111 -15 -47 0
-111 -15 -51 0
-111 -15 -53 0
-111 -15 -55 0
-111 -15 -59 0
-111 -15 -61 0
-111 -15 -65 0
-111 -15 -69 0
-111 -19 -21 0
-111 -19 -23 0
-111 -19 -25 0
-111 -19 -29 0
-111 -19 -43 0
-111 -19 -45 0
-111 -19 -47 0
-111 -19 -51 0
-111 -19 -53 0
-111 -19 -55 0
-111 -19 -59 0
-111 -19 -61 0
-111 -19 -65 0
-111 -19 -69 0
-111 -21 -23 0
-111 -21 -25 0
-111 -21 -29 0
-111 -21 -43 0
-111 -21 -45 0
-111 -21 -47 0
-111 -21 -51 0
-111 -21 -53 0
-111 -21 -55 0
-111 -21 -59 0
-111 -21 -61 0
-111 -21 -65 0
-111 -21 -69 0
-111 -23 -25 0
-111 -23 -29 0
-111 -23 -43 0
-111 -23 -45 0
-111 -23 -47 0
-111 -23 -51 0
-111 -23 -53 0
-111 -23 -55 0
-111 -23 -59 0
-111 -23 -61 0
-111 -23 -65 0
-111 -23 -69 0
-111 -25 -29 0
-111 -25 -43 0
-111 -25 -45 0
-111 -25 -47 0
-111 -25 -51 0
-111 -25 -53 0
-111 -25 -55 0
-111 -25 -59 0
-111 -25 -61 0
-111 -25 -65 0
-111 -25 -69 0
-111 -29 -43 0
-111 -29 -45 0
-111 -29 -47 0
-111 -29 -51 0
-111 -29 -53 0
-111 -29 -55 0
-111 -29 -59 0
-111 -29 -61 0
-111 -29 -65 0
-111 -29 -69 0
-111 -43 -45 0
-111 -43 -47 0
-111 -43 -51 0
-111 -43 -53 0
-111 -43 -55 0
-111 -43 -59 0
-111 -43 -61 0
-111 -43 -65 0
-111 -43 -69 0
-111 -45 -47 0
-111 -45 -51 0
-111 -45 -53 0
-111 -45 -55 0
-111 -45 -59 0
-111 -45 -61 0
-111 -45 -65 0
-111 -45 -69 0
-111 -47 -51 0
-111 -47 -53 0
-111 -47 -55 0
-111 -47 -59 0
-111 -47 -61 0
-111 -47 -65 0
-111 -47 -69 0
-111 -51 -53 0
-111 -51 -55 0
-111 -51 -59 0
-111 -51 -61 0
-111 -51 -65 0
-111 -51 -69 0
-111 -53 -55 0
-111 -53 -59 0
-111 -53 -61 0
-111 -53 -65 0
-111 -53 -69 0
-111 -55 -59 0
-111 -55 -61 0
-111 -55 -65 0
-111 -55 -69 0
-111 -59 -61 0
-111 -59 -65 0
-111 -59 -69 0
-111 -61 -65 0
-111 -61 -69 0
-111 -65 -69 0
-112 2 6 8 10 12 16 20 22 24 26 30 44 46 48 52 54 56 60 62 66 70 0
-112 -2 -6 0
-112 -2 -8 0
-112 -2 -10 0
-112 -2 -12 0
-112 -2 -16 0
-112 -2 -20 0
-112 -2 -22 0
-112 -2 -24 0
-112 -2 -26 0
-112 -2 -30 0
-112 -2 -44 0
-112 -2 -46 0
-112 -2 -48 0
-112 -2 -52 0
-112 -2 -54 0
-112 -2 -56 0
-112 -2 -60 0
-112 -2 -62 0
-112 -2 -66 0
-112 -2 -70 0
-112 -6 -8 0
-112 -6 -10 0
-112 -6 -12 0
-112 -6 -16 0
-112 -6 -20 0
-112 -6 -22 0
-112 -6 -24 0
-112 -6 -26 0
-112 -6 -30 0
-112 -6 -44 0
-112 -6 -46 0
-112 -6 -48 0
-112 -6 -52 0
-112 -6 -54 0
-112 -6 -56 0
-112 -6 -60 0
-112 -6 -62 0
-112 -6 -66 0
-112 -6 -70 0
-112 -8 -10 0
-112 -8 -12 0
-112 -8 -16 0
-112 -8 -20 0
-112 -8 -22 0
-112 -8 -24 0
-112 -8 -26 0
-112 -8 -30 0
-112 -8 -44 0
-112 -8 -46 0
-112 -8 -48 0
-112 -8 -52 0
-112 -8 -54 0
-112 -8 -56 0
-112 -8 -60 0
-112 -8 -62 0
-112 -8 -66 0
-112 -8 -70 0
-112 -10 -12 0
-112 -10 -16 0
-112 -10 -20 0
-112 -10 -22 0
-112 -10 -24 0
-112 -10 -26 0
-112 -10 -30 0
-112 -10 -44 0
-112 -10 -46 0
-112 -10 -48 0
-112 -10 -52 0
-112 -10 -54 0
-112 -10 -56 0
-112 -10 -60 0
-112 -10 -62 0
-112 -10 -66 0
-112 -10 -70 0
-112 -12 -16 0
-112 -12 -20 0
-112 -12 -22 0
-112 -12 -24 0
-112 -12 -26 0
-112 -12 -30 0
-112 -12 -44 0
-112 -12 -46 0
-112 -12 -48 0
-112 -12 -52 0
-112 -12 -54 0
-112 -12 -56 0
-112 -12 -60 0
-112 -12 -62 0
-112 -12 -66 0
-112 -12 -70 0
-112 -16 -20 0
-112 -16 -22 0
-112 -16 -24 0
-112 -16 -26 0
-112 -16 -30 0
-112 -16 -44 0
-112 -16 -46 0
-112 -16 -48 0
-112 -16 -52 0
-112 -16 -54 0
-112 -16 -56 0
-112 -16 -60 0
-112 -16 -62 0
-112 -16 -66 0
-112 -16 -70 0
-112 -20 -22 0
-112 -20 -24 0
-112 -20 -26 0
-112 -20 -30 0
-112 -20 -44 0
-112 -20 -46 0
-112 -20 -48 0
-112 -20 -52 0
-112 -20 -54 0
-112 -20 -56 0
-112 -20 -60 0
-112 -20 -62 0
-112 -20 -66 0
-112 -20 -70 0
-112 -22 -24 0
-112 -22 -26 0
-112 -22 -30 0
-112 -22 -44 0
-112 -22 -46 0
-112 -22 -48 0
-112 -22 -52 0
-112 -22 -54 0
-112 -22 -56 0
-112 -22 -60 0
-112 -22 -62 0
-112 -22 -66 0
-112 -22 -70 0
-112 -24 -26 0
-112 -24 -30 0
-112 -24 -44 0
-112 -24 -46 0
-112 -24 -48 0
-112 -24 -52 0
-112 -24 -54 0
-112 -24 -56 0
-112 -24 -60 0
-112 -24 -62 0
-112 -24 -66 0
-112 -24 -70 0
-112 -26 -30 0
-112 -26 -44 0
-112 -26 -46 0
-112 -26 -48 0
-112 -26 -52 0
-112 -26 -54 0
-112 -26 -56 0
-112 -26 -60 0
-112 -26 -62 0
-112 -26 -66 0
-112 -26 -70 0
-112 -30 -44 0
-112 -30 -46 0
-112 -30 -48 0
-112 -30 -52 0
-112 -30 -54 0
-112 -30 -56 0
-112 -30 -60 0
-112 -30 -62 0
-112 -30 -66 0
-112 -30 -70 0
-112 -44 -46 0
-112 -44 -48 0
-112 -44 -52 0
-112 -44 -54 0
-112 -44 -56 0
-112 -44 -60 0
-112 -44 -62 0
-112 -44 -66 0
-112 -44 -70 0
-112 -46 -48 0
-112 -46 -52 0
-112 -46 -54 0
-112 -46 -56 0
-112 -46 -60 0
-112 -46 -62 0
-112 -46 -66 0
-112 -46 -70 0
-112 -48 -52 0
-112 -48 -54 0
-112 -48 -56 0
-112 -48 -60 0
-112 -48 -62 0
-112 -48 -66 0
-112 -48 -70 0
-112 -52 -54 0
-112 -52 -56 0
-112 -52 -60 0
-112 -52 -62 0
-112 -52 -66 0
-112 -52 -70 0
-112 -54 -56 0
-112 -54 -60 0
-112 -54 -62 0
-112 -54 -66 0
-112 -54 -70 0
-112 -56 -60 0
-112 -56 -62 0
-112 -56 -66 0
-112 -56 -70 0
-112 -60 -62 0
-112 -60 -66 0
-112 -60 -70 0
-112 -62 -66 0
-112 -62 -70 0
-112 -66 -70 0
-41 -42 0
113 114 0
-113 1 5 7 9 11 13 19 21 23 25 27 43 45 47 49 53 55 57 61 63 67 0
-113 -1 -5 0
-113 -1 -7 0
-113 -1 -9 0
-113 -1 -11 0
-113 -1 -13 0
-113 -1 -19 0
-113 -1 -21 0
-113 -1 -23 0
-113 -1 -25 0
-113 -1 -27 0
-113 -1 -43 0
-113 -1 -45 0
-113 -1 -47 0
-113 -1 -49 0
-113 -1 -53 0
-113 -1 -55 0
-113 -1 -57 0
-113 -1 -61 0
-113 -1 -63 0
-113 -1 -67 0
-113 -5 -7 0
-113 -5 -9 0
-113 -5 -11 0
-113 -5 -13 0
-113 -5 -19 0
-113 -5 -21 0
-113 -5 -23 0
-113 -5 -25 0
-113 -5 -27 0
-113 -5 -43 0
-113 -5 -45 0
-113 -5 -47 0
-113 -5 -49 0
-113 -5 -53 0
-113 -5 -55 0
-113 -5 -57 0
-113 -5 -61 0
-113 -5 -63 0
-113 -5 -67 0
-113 -7 -9 0
-113 -7 -11 0
-113 -7 -13 0
-113 -7 -19 0
-113 -7 -21 0
-113 -7 -23 0
-113 -7 -25 0
-113 -7 -27 0
-113 -7 -43 0
-113 -7 -45 0
-113 -7 -47 0
-113 -7 -49 0
-113 -7 -53 0
-113 -7 -55 0
-113 -7 -57 0
-113 -7 -61 0
-113 -7 -63 0
-113 -7 -67 0
-113 -9 -11 0
-113 -9 -13 0
-113 -9 -19 0
-113 -9 -21 0
-113 -9 -23 0
-113 -9 -25 0
-113 -9 -27 0
-113 -9 -43 0
-113 -9 -45 0
-113 -9 -47 0
-113 -9 -49 0
-113 -9 -53 0
-113 -9 -55 0
-113 -9 -57 0
-113 -9 -61 0
-113 -9 -63 0
-113 -9 -67 0
-113 -11 -13 0
-113 -11 -19 0
-113 -11 -21 0
-113 -11 -23 0
-113 -11 -25 0
-113 -11 -27 0
-113 -11 -43 0
-113 -11 -45 0
-113 -11 -47 0
-113 -11 -49 0
-113 -11 -53 0
-113 -11 -55 0
-113 -11 -57 0
-113 -11 -61 0
-113 -11 -63 0
-113 -11 -67 0
-113 -13 -19 0
-113 -13 -21 0
-113 -13 -23 0
-113 -13 -25 0
-113 -13 -27 0
-113 -13 -43 0
-113 -13 -45 0
-113 -13 -47 0
-113 -13 -49 0
-113 -13 -53 0
-113 -13 -55 0
-113 -13 -57 0
-113 -13 -61 0
-113 -13 -63 0
-113 -13 -67 0
-113 -19 -21 0
-113 -19 -23 0
-113 -19 -25 0
-113 -19 -27 0
-113 -19 -43 0
-113 -19 -45 0
-113 -19 -47 0
-113 -19 -49 0
-113 -19 -53 0
-113 -19 -55 0
-113 -19 -57 0
-113 -19 -61 0
-113 -19 -63 0
-113 -19 -67 0
-113 -21 -23 0
-113 -21 -25 0
-113 -21 -27 0
-113 -21 -43 0
-113 -21 -45 0
-113 -21 -47 0
-113 -21 -49 0
-113 -21 -53 0
-113 -21 -55 0
-113 -21 -57 0
-113 -21 -61 0
-113 -21 -63 0
-113 -21 -67 0
-113 -23 -25 0
-113 -23 -27 0
-113 -23 -43 0
-113 -23 -45 0
-113 -23 -47 0
-113 -23 -49 0
-113 -23 -53 0
-113 -23 -55 0
-113 -23 -57 0
-113 -23 -61 0
-113 -23 -63 0
-113 -23 -67 0
-113 -25 -27 0
-113 -25 -43 0
-113 -25 -45 0
-113 -25 -47 0
-113 -25 -49 0
-113 -25 -53 0
-113 -25 -55 0
-113 -25 -57 0
-113 -25 -61 0
-113 -25 -63 0
-113 -25 -67 0
-113 -27 -43 0
-113 -27 -45 0
-113 -27 -47 0
-113 -27 -49 0
-113 -27 -53 0
-113 -27 -55 0
-113 -27 -57 0
-113 -27 -61 0
-113 -27 -63 0
-113 -27 -67 0
-113 -43 -45 0
-113 -43 -47 0
-113 -43 -49 0
-113 -43 -53 0
-113 -43 -55 0
-113 -43 -57 0
-113 -43 -61 0
-113 -43 -63 0
-113 -43 -67 0
-113 -45 -47 0
-113 -45 -49 0
-113 -45 -53 0
-113 -45 -55 0
-113 -45 -57 0
-113 -45 -61 0
-113 -45 -63 0
-113 -45 -67 0
-113 -47 -49 0
-113 -47 -53 0
-113 -47 -55 0
-113 -47 -57 0
-113 -47 -61 0
-113 -47 -63 0
-113 -47 -67 0
-113 -49 -53 0
-113 -49 -55 0
-113 -49 -57 0
-113 -49 -61 0
-113 -49 -63 0
-113 -49 -67 0
-113 -53 -55 0
-113 -53 -57 0
-113 -53 -61 0
-113 -53 -63 0
-113 -53 -67 0
-113 -55 -57 0
-113 -55 -61 0
-113 -55 -63 0
-113 -55 -67 0
-113 -57 -61 0
-113 -57 -63 0
-113 -57 -67 0
-113 -61 -63 0
-113 -61 -67 0
-113 -63 -67 0
-114 2 6 8 10 12 14 20 22 24 26 28 44 46 48 50 54 56 58 62 64 68 0
-114 -2 -6 0
-114 -2 -8 0
-114 -2 -10 0
-114 -2 -12 0
-114 -2 -14 0
-114 -2 -20 0
-114 -2 -22 0
-114 -2 -24 0
-114 -2 -26 0
-114 -2 -28 0
-114 -2 -44 0
-114 -2 -46 0
-114 -2 -48 0
-114 -2 -50 0
-114 -2 -54 0
-114 -2 -56 0
-114 -2 -58 0
-114 -2 -62 0
-114 -2 -64 0
-114 -2 -68 0
-114 -6 -8 0
-114 -6 -10 0
-114 -6 -12 0
-114 -6 -14 0
-114 -6 -20 0
-114 -6 -22 0
-114 -6 -24 0
-114 -6 -26 0
-114 -6 -28 0
-114 -6 -44 0
-114 -6 -46 0
-114 -6 -48 0
-114 -6 -50 0
-114 -6 -54 0
-114 -6 -56 0
-114 -6 -58 0
-114 -6 -62 0
-114 -6 -64 0
-114 -6 -68 0
-114 -8 -10 0
-114 -8 -12 0
-114 -8 -14 0
-114 -8 -20 0
-114 -8 -22 0
-114 -8 -24 0
-114 -8 -26 0
-114 -8 -28 0
-114 -8 -44 0
-114 -8 -46 0
-114 -8 -48 0
-114 -8 -50 0
-114 -8 -54 0
-114 -8 -56 0
-114 -8 -58 0
-114 -8 -62 0
-114 -8 -64 0
-114 -8 -68 0
-114 -10 -12 0
-114 -10 -14 0
-114 -10 -20 0
-114 -10 -22 0
-114 -10 -24 0
-114 -10 -26 0
-114 -10 -28 0
-114 -10 -44 0
-114 -10 -46 0
-114 -10 -48 0
-114 -10 -50 0
-114 -10 -54 0
-114 -10 -56 0
-114 -10 -58 0
-114 -10 -62 0
-114 -10 -64 0
-114 -10 -68 0
-114 -12 -14 0
-114 -12 -20 0
-114 -12 -22 0
-114 -12 -24 0
-114 -12 -26 0
-114 -12 -28 0
-114 -12 -44 0
-114 -12 -46 0
-114 -12 -48 0
-114 -12 -50 0
-114 -12 -54 0
-114 -12 -56 0
-114 -12 -58 0
-114 -12 -62 0
-114 -12 -64 0
-114 -12 -68 0
-114 -14 -20 0
-114 -14 -22 0
-114 -14 -24 0
-114 -14 -26 0
-114 -14 -28 0
-114 -14 -44 0
-114 -14 -46 0
-114 -14 -48 0
-114 -14 -50 0
-114 -14 -54 0
-114 -14 -56 0
-114 -14 -58 0
-114 -14 -62 0
-114 -14 -64 0
-114 -14 -68 0
-114 -20 -22 0
-114 -20 -24 0
-114 -20 -26 0
-114 -20 -28 0
-114 -20 -44 0
-114 -20 -46 0
-114 -20 -48 0
-114 -20 -50 0
-114 -20 -54 0
-114 -20 -56 0
-114 -20 -58 0
-114 -20 -62 0
-114 -20 -64 0
-114 -20 -68 0
-114 -22 -24 0
-114 -22 -26 0
-114 -22 -28 0
-114 -22 -44 0
-114 -22 -46 0
-114 -22 -48 0
-114 -22 -50 0
-114 -22 -54 0
-114 -22 -56 0
-114 -22 -58 0
-114 -22 -62 0
-114 -22 -64 0
-114 -22 -68 0
-114 -24 -26 0
-114 -24 -28 0
-114 -24 -44 0
-114 -24 -46 0
-114 -24 -48 0
-114 -24 -50 0
-114 -24 -54 0
-114 -24 -56 0
-114 -24 -58 0
-114 -24 -62 0
-114 -24 -64 0
-114 -24 -68 0
-114 -26 -28 0
-114 -26 -44 0
-114 -26 -46 0
-114 -26 -48 0
-114 -26 -50 0
-114 -26 -54 0
-114 -26 -56 0
-114 -26 -58 0
-114 -26 -62 0
-114 -26 -64 0
-114 -26 -68 0
-114 -28 -44 0
-114 -28 -46 0
-114 -28 -48 0
-114 -28 -50 0
-114 -28 -54 0
-114 -28 -56 0
-114 -28 -58 0
-114 -28 -62 0
-114 -28 -64 0
-114 -28 -68 0
-114 -44 -46 0
-114 -44 -48 0
-114 -44 -50 0
-114 -44 -54 0
-114 -44 -56 0
-114 -44 -58 0
-114 -44 -62 0
-114 -44 -64 0
-114 -44 -68 0
-114 -46 -48 0
-114 -46 -50 0
-114 -46 -54 0
-114 -46 -56 0
-114 -46 -58 0
-114 -46 -62 0
-114 -46 -64 0
-114 -46 -68 0
-114 -48 -50 0
-114 -48 -54 0
-114 -48 -56 0
-114 -48 -58 0
-114 -48 -62 0
-114 -48 -64 0
-114 -48 -68 0
-114 -50 -54 0
-114 -50 -56 0
-114 -50 -58 0
-114 -50 -62 0
-114 -50 -64 0
-114 -50 -68 0
-114 -54 -56 0
-114 -54 -58 0
-114 -54 -62 0
-114 -54 -64 0
-114 -54 -68 0
-114 -56 -58 0
-114 -56 -62 0
-114 -56 -64 0
-114 -56 -68 0
-114 -58 -62 0
-114 -58 -64 0
-114 -58 -68 0
-114 -62 -64 0
-114 -62 -68 0
-114 -64 -68 0
-43 -44 0
115 116 0
-115 1 3 9 11 13 15 17 23 25 27 29 35 37 39 41 61 63 65 67 69 71 0
-115 -1 -3 0
-115 -1 -9 0
-115 -1 -11 0
-115 -1 -13 0
-115 -1 -15 0
-115 -1 -17 0
-115 -1 -23 0
-115 -1 -25 0
-115 -1 -27 0
-115 -1 -29 0
-115 -1 -35 0
-115 -1 -37 0
-115 -1 -39 0
-115 -1 -41 0
-115 -1 -61 0
-115 -1 -63 0
-115 -1 -65 0
-115 -1 -67 0
-115 -1 -69 0
-115 -1 -71 0
-115 -3 -9 0
-115 -3 -11 0
-115 -3 -13 0
-115 -3 -15 0
-115 -3 -17 0
-115 -3 -23 0
-115 -3 -25 0
-115 -3 -27 0
-115 -3 -29 0
-115 -3 -35 0
-115 -3 -37 0
-115 -3 -39 0
-115 -3 -41 0
-115 -3 -61 0
-115 -3 -63 0
-115 -3 -65 0
-115 -3 -67 0
-115 -3 -69 0
-115 -3 -71 0
-115 -9 -11 0
-115 -9 -13 0
-115 -9 -15 0
-115 -9 -17 0
-115 -9 -23 0
-115 -9 -25 0
-115 -9 -27 0
-115 -9 -29 0
-115 -9 -35 0
-115 -9 -37 0
-115 -9 -39 0
-115 -9 -41 0
-115 -9 -61 0
-115 -9 -63 0
-115 -9 -65 0
-115 -9 -67 0
-115 -9 -69 0
-115 -9 -71 0
-115 -11 -13 0
-115 -11 -15 0
-115 -11 -17 0
-115 -11 -23 0
-115 -11 -25 0
-115 -11 -27 0
-115 -11 -29 0
-115 -11 -35 0
-115 -11 -37 0
-115 -11 -39 0
-115 -11 -41 0
-115 -11 -61 0
-115 -11 -63 0
-115 -11 -65 0
-115 -11 -67 0
-115 -11 -69 0
-115 -11 -71 0
-115 -13 -15 0
-115 -13 -17 0
-115 -13 -23 0
-115 -13 -25 0
-115 -13 -27 0
-115 -13 -29 0
-115 -13 -35 0
-115 -13 -37 0
-115 -13 -39 0
-115 -13 -41 0
-115 -13 -61 0
-115 -13 -63 0
-115 -13 -65 0
-115 -13 -67 0
-115 -13 -69 0
-115 -13 -71 0
-115 -15 -17 0
-115 -15 -23 0
-115 -15 -25 0
-115 -15 -27 0
-115 -15 -29 0
-115 -15 -35 0
-115 -15 -37 0
-115 -15 -39 0
-115 -15 -41 0
-115 -15 -61 0
-115 -15 -63 0
-115 -15 -65 0
-115 -15 -67 0
-115 -15 -69 0
-115 -15 -71 0
-115 -17 -23 0
-115 -17 -25 0
-115 -17 -27 0
-115 -17 -29 0
-115 -17 -35 0
-115 -17 -37 0
-115 -17 -39 0
-115 -17 -41 0
-115 -17 -61 0
-115 -17 -63 0
-115 -17 -65 0
-115 -17 -67 0
-115 -17 -69 0
-115 -17 -71 0
-115 -23 -25 0
-115 -23 -27 0
-115 -23 -29 0
-115 -23 -35 0
-115 -23 -37 0
-115 -23 -39 0
-115 -23 -41 0
-115 -23 -61 0
-115 -23 -63 0
-115 -23 -65 0
-115 -23 -67 0
-115 -23 -69 0
-115 -23 -71 0
-115 -25 -27 0
-115 -25 -29 0
-115 -25 -35 0
-115 -25 -37 0
-115 -25 -39 0
-115 -25 -41 0
-115 -25 -61 0
-115 -25 -63 0
-115 -25 -65 0
-115 -25 -67 0
-115 -25 -69 0
-115 -25 -71 0
-115 -27 -29 0
-115 -27 -35 0
-115 -27 -37 0
-115 -27 -39 0
-115 -27 -41 0
-115 -27 -61 0
-115 -27 -63 0
-115 -27 -65 0
-115 -27 -67 0
-115 -27 -69 0
-115 -27 -71 0
-115 -29 -35 0
-115 -29 -37 0
-115 -29 -39 0
-115 -29 -41 0
-115 -29 -61 0
-115 -29 -63 0
-115 -29 -65 0
-115 -29 -67 0
-115 -29 -69 0
-115 -29 -71 0
-115 -35 -37 0
-115 -35 -39 0
-115 -35 -41 0
-115 -35 -61 0
-115 -35 -63 0
-115 -35 -65 0
-115 -35 -67 0
-115 -35 -69 0
-115 -35 -71 0
-115 -37 -39 0
-115 -37 -41 0
-115 -37 -61 0
-115 -37 -63 0
-115 -37 -65 0
-115 -37 -67 0
-115 -37 -69 0
-115 -37 -71 0
-115 -39 -41 0
-115 -39 -61 0
-115 -39 -63 0
-115 -39 -65 0
-115 -39 -67 0
-115 -39 -69 0
-115 -39 -71 0
-115 -41 -61 0
-115 -41 -63 0
-115 -41 -65 0
-115 -41 -67 0
-115 -41 -69 0
-115 -41 -71 0
-115 -61 -63 0
-115 -61 -65 0
-115 -61 -67 0
-115 -61 -69 0
-115 -61 -71 0
-115 -63 -65 0
-115 -63 -67 0
-115 -63 -69 0
-115 -63 -71 0
-115 -65 -67 0
-115 -65 -69 0
-115 -65 -71 0
-115 -67 -69 0
-115 -67 -71 0
-115 -69 -71 0
-116 2 4 10 12 14 16 18 24 26 28 30 36 38 40 42 62 64 66 68 70 72 0
-116 -2 -4 0
-116 -2 -10 0
-116 -2 -12 0
-116 -2 -14 0
-116 -2 -16 0
-116 -2 -18 0
-116 -2 -24 0
-116 -2 -26 0
-116 -2 -28 0
-116 -2 -30 0
-116 -2 -36 0
-116 -2 -38 0
-116 -2 -40 0
-116 -2 -42 0
-116 -2 -62 0
-116 -2 -64 0
-116 -2 -66 0
-116 -2 -68 0
-116 -2 -70 0
-116 -2 -72 0
-116 -4 -10 0
-116 -4 -12 0
-116 -4 -14 0
-116 -4 -16 0
-116 -4 -18 0
-116 -4 -24 0
-116 -4 -26 0
-116 -4 -28 0
-116 -4 -30 0
-116 -4 -36 0
-116 -4 -38 0
-116 -4 -40 0
-116 -4 -42 0
-116 -4 -62 0
-116 -4 -64 0
-116 -4 -66 0
-116 -4 -68 0
-116 -4 -70 0
-116 -4 -72 0
-116 -10 -12 0
-116 -10 -14 0
-116 -10 -16 0
-116 -10 -18 0
-116 -10 -24 0
-116 -10 -26 0
-116 -10 -28 0
-116 -10 -30 0
-116 -10 -36 0
-116 -10 -38 0
-116 -10 -40 0
-116 -10 -42 0
-116 -10 -62 0
-116 -10 -64 0
-116 -10 -66 0
-116 -10 -68 0
-116 -10 -70 0
-116 -10 -72 0
-116 -12 -14 0
-116 -12 -16 0
-116 -12 -18 0
-116 -12 -24 0
-116 -12 -26 0
-116 -12 -28 0
-116 -12 -30 0
-116 -12 -36 0
-116 -12 -38 0
-116 -12 -40 0
-116 -12 -42 0
-116 -12 -62 0
-116 -12 -64 0
-116 -12 -66 0
-116 -12 -68 0
-116 -12 -70 0
-116 -12 -72 0
-116 -14 -16 0
-116 -14 -18 0
-116 -14 -24 0
-116 -14 -26 0
-116 -14 -28 0
-116 -14 -30 0
-116 -14 -36 0
-116 -14 -38 0
-116 -14 -40 0
-116 -14 -42 0
-116 -14 -62 0
-116 -14 -64 0
-116 -14 -66 0
-116 -14 -68 0
-116 -14 -70 0
-116 -14 -72 0
-116 -16 -18 0
-116 -16 -24 0
-116 -16 -26 0
-116 -16 -28 0
-116 -16 -30 0
-116 -16 -36 0
-116 -16 -38 0
-116 -16 -40 0
-116 -16 -42 0
-116 -16 -62 0
-116 -16 -64 0
-116 -16 -66 0
-116 -16 -68 0
-116 -16 -70 0
-116 -16 -72 0
-116 -18 -24 0
-116 -18 -26 0
-116 -18 -28 0
-116 -18 -30 0
-116 -18 -36 0
-116 -18 -38 0
-116 -18 -40 0
-116 -18 -42 0
-116 -18 -62 0
-116 -18 -64 0
-116 -18 -66 0
-116 -18 -68 0
-116 -18 -70 0
-116 -18 -72 0
-116 -24 -26 0
-116 -24 -28 0
-116 -24 -30 0
-116 -24 -36 0
-116 -24 -38 0
-116 -24 -40 0
-116 -24 -42 0
-116 -24 -62 0
-116 -24 -64 0
-116 -24 -66 0
-116 -24 -68 0
-116 -24 -70 0
-116 -24 -72 0
-116 -26 -28 0
-116 -26 -30 0
-116 -26 -36 0
-116 -26 -38 0
-116 -26 -40 0
-116 -26 -42 0
-116 -26 -62 0
-116 -26 -64 0
-116 -26 -66 0
-116 -26 -68 0
-116 -26 -70 0
-116 -26 -72 0
-116 -28 -30 0
-116 -28 -36 0
-116 -28 -38 0
-116 -28 -40 0
-116 -28 -42 0
-116 -28 -62 0
-116 -28 -64 0
-116 -28 -66 0
-116 -28 -68 0
-116 -28 -70 0
-116 -28 -72 0
-116 -30 -36 0
-116 -30 -38 0
-116 -30 -40 0
-116 -30 -42 0
-116 -30 -62 0
-116 -30 -64 0
-116 -30 -66 0
-116 -30 -68 0
-116 -30 -70 0
-116 -30 -72 0
-116 -36 -38 0
-116 -36 -40 0
-116 -36 -42 0
-116 -36 -62 0
-116 -36 -64 0
-116 -36 -66 0
-116 -36 -68 0
-116 -36 -70 0
-116 -36 -72 0
-116 -38 -40 0
-116 -38 -42 0
-116 -38 -62 0
-116 -38 -64 0
-116 -38 -66 0
-116 -38 -68 0
-116 -38 -70 0
-116 -38 -72 0
-116 -40 -42 0
-116 -40 -62 0
-116 -40 -64 0
-116 -40 -66 0
-116 -40 -68 0
-116 -40 -70 0
-116 -40 -72 0
-116 -42 -62 0
-116 -42 -64 0
-116 -42 -66 0
-116 -42 -68 0
-116 -42 -70 0
-116 -42 -72 0
-116 -62 -64 0
-116 -62 -66 0
-116 -62 -68 0
-116 -62 -70 0
-116 -62 -72 0
-116 -64 -66 0
-116 -64 -68 0
-116 -64 -70 0
-116 -64 -72 0
-116 -66 -68 0
-116 -66 -70 0
-116 -66 -72 0
-116 -68 -70 0
-116 -68 -72 0
-116 -70 -72 0
-45 -46 0
117 118 0
-117 1 3 7 11 13 15 17 21 25 27 29 33 37 39 41 55 57 59 67 69 71 0
-117 -1 -3 0
-117 -1 -7 0
-117 -1 -11 0
-117 -1 -13 0
-117 -1 -15 0
-117 -1 -17 0
-117 -1 -21 0
-117 -1 -25 0
-117 -1 -27 0
-117 -1 -29 0
-117 -1 -33 0
-117 -1 -37 0
-117 -1 -39 0
-117 -1 -41 0
-117 -1 -55 0
-117 -1 -57 0
-117 -1 -59 0
-117 -1 -67 0
-117 -1 -69 0
-117 -1 -71 0
-117 -3 -7 0
-117 -3 -11 0
-117 -3 -13 0
-117 -3 -15 0
-117 -3 -17 0
-117 -3 -21 0
-117 -3 -25 0
-117 -3 -27 0
-117 -3 -29 0
-117 -3 -33 0
-117 -3 -37 0
-117 -3 -39 0
-117 -3 -41 0
-117 -3 -55 0
-117 -3 -57 0
-117 -3 -59 0
-117 -3 -67 0
-117 -3 -69 0
-117 -3 -71 0
-117 -7 -11 0
-117 -7 -13 0
-117 -7 -15 0
-117 -7 -17 0
-117 -7 -21 0
-117 -7 -25 0
-117 -7 -27 0
-117 -7 -29 0
-117 -7 -33 0
-117 -7 -37 0
-117 -7 -39 0
-117 -7 -41 0
-117 -7 -55 0
-117 -7 -57 0
-117 -7 -59 0
-117 -7 -67 0
-117 -7 -69 0
-117 -7 -71 0
-117 -11 -13 0
-117 -11 -15 0
-117 -11 -17 0
-117 -11 -21 0
-117 -11 -25 0
-117 -11 -27 0
-117 -11 -29 0
-117 -11 -33 0
-117 -11 -37 0
-117 -11 -39 0
-117 -11 -41 0
-117 -11 -55 0
-117 -11 -57 0
-117 -11 -59 0
-117 -11 -67 0
-117 -11 -69 0
-117 -11 -71 0
-117 -13 -15 0
-117 -13 -17 0
-117 -13 -21 0
-117 -13 -25 0
-117 -13 -27 0
-117 -13 -29 0
-117 -13 -33 0
-117 -13 -37 0
-117 -13 -39 0
-117 -13 -41 0
-117 -13 -55 0
-117 -13 -57 0
-117 -13 -59 0
-117 -13 -67 0
-117 -13 -69 0
-117 -13 -71 0
-117 -15 -17 0
-117 -15 -21 0
-117 -15 -25 0
-117 -15 -27 0
-117 -15 -29 0
-117 -15 -33 0
-117 -15 -37 0
-117 -15 -39 0
-117 -15 -41 0
-117 -15 -55 0
-117 -15 -57 0
-117 -15 -59 0
-117 -15 -67 0
-117 -15 -69 0
-117 -15 -71 0
-117 -17 -21 0
-117 -17 -25 0
-117 -17 -27 0
-117 -17 -29 0
-117 -17 -33 0
-117 -17 -37 0
-117 -17 -39 0
-117 -17 -41 0
-117 -17 -55 0
-117 -17 -57 0
-117 -17 -59 0
-117 -17 -67 0
-117 -17 -69 0
-117 -17 -71 0
-117 -21 -25 0
-117 -21 -27 0
-117 -21 -29 0
-117 -21 -33 0
-117 -21 -37 0
-117 -21 -39 0
-117 -21 -41 0
-117 -21 -55 0
-117 -21 -57 0
-117 -21 -59 0
-117 -21 -67 0
-117 -21 -69 0
-117 -21 -71 0
-117 -25 -27 0
-117 -25 -29 0
-117 -25 -33 0
-117 -25 -37 0
-117 -25 -39 0
-117 -25 -41 0
-117 -25 -55 0
-117 -25 -57 0
-117 -25 -59 0
-117 -25 -67 0
-117 -25 -69 0
-117 -25 -71 0
-117 -27 -29 0
-117 -27 -33 0
-117 -27 -37 0
-117 -27 -39 0
-117 -27 -41 0
-117 -27 -55 0
-117 -27 -57 0
-117 -27 -59 0
-117 -27 -67 0
-117 -27 -69 0
-117 -27 -71 0
-117 -29 -33 0
-117 -29 -37 0
-117 -29 -39 0
-117 -29 -41 0
-117 -29 -55 0
-117 -29 -57 0
-117 -29 -59 0
-117 -29 -67 0
-117 -29 -69 0
-117 -29 -71 0
-117 -33 -37 0
-117 -33 -39 0
-117 -33 -41 0
-117 -33 -55 0
-117 -33 -57 0
-117 -33 -59 0
-117 -33 -67 0
-117 -33 -69 0
-117 -33 -71 0
-117 -37 -39 0
-117 -37 -41 0
-117 -37 -55 0
-117 -37 -57 0
-117 -37 -59 0
-117 -37 -67 0
-117 -37 -69 0
-117 -37 -71 0
-117 -39 -41 0
-117 -39 -55 0
-117 -39 -57 0
-117 -39 -59 0
-117 -39 -67 0
-117 -39 -69 0
-117 -39 -71 0
-117 -41 -55 0
-117 -41 -57 0
-117 -41 -59 0
-117 -41 -67 0
-117 -41 -69 0
-117 -41 -71 0
-117 -55 -57 0
-117 -55 -59 0
-117 -55 -67 0
-117 -55 -69 0
-117 -55 -71 0
-117 -57 -59 0
-117 -57 -67 0
-117 -57 -69 0
-117 -57 -71 0
-117 -59 -67 0
-117 -59 -69 0
-117 -59 -71 0
-117 -67 -69 0
-117 -67 -71 0
-117 -69 -71 0
-118 2 4 8 12 14 16 18 22 26 28 30 34 38 40 42 56 58 60 68 70 72 0
-118 -2 -4 0
-118 -2 -8 0
-118 -2 -12 0
-118 -2 -14 0
-118 -2 -16 0
-118 -2 -18 0
-118 -2 -22 0
-118 -2 -26 0
-118 -2 -28 0
-118 -2 -30 0
-118 -2 -34 0
-118 -2 -38 0
-118 -2 -40 0
-118 -2 -42 0
-118 -2 -56 0
-118 -2 -58 0
-118 -2 -60 0
-118 -2 -68 0
-118 -2 -70 0
-118 -2 -72 0
-118 -4 -8 0
-118 -4 -12 0
-118 -4 -14 0
-118 -4 -16 0
-118 -4 -18 0
-118 -4 -22 0
-118 -4 -26 0
-118 -4 -28 0
-118 -4 -30 0
-118 -4 -34 0
-118 -4 -38 0
-118 -4 -40 0
-118 -4 -42 0
-118 -4 -56 0
-118 -4 -58 0
-118 -4 -60 0
-118 -4 -68 0
-118 -4 -70 0
-118 -4 -72 0
-118 -8 -12 0
-118 -8 -14 0
-118 -8 -16 0
-118 -8 -18 0
-118 -8 -22 0
-118 -8 -26 0
-118 -8 -28 0
-118 -8 -30 0
-118 -8 -34 0
-118 -8 -38 0
-118 -8 -40 0
-118 -8 -42 0
-118 -8 -56 0
-118 -8 -58 0
-118 -8 -60 0
-118 -8 -68 0
-118 -8 -70 0
-118 -8 -72 0
-118 -12 -14 0
-118 -12 -16 0
-118 -12 -18 0
-118 -12 -22 0
-118 -12 -26 0
-118 -12 -28 0
-118 -12 -30 0
-118 -12 -34 0
-118 -12 -38 0
-118 -12 -40 0
-118 -12 -42 0
-118 -12 -56 0
-118 -12 -58 0
-118 -12 -60 0
-118 -12 -68 0
-118 -12 -70 0
-118 -12 -72 0
-118 -14 -16 0
-118 -14 -18 0
-118 -14 -22 0
-118 -14 -26 0
-118 -14 -28 0
-118 -14 -30 0
-118 -14 -34 0
-118 -14 -38 0
-118 -14 -40 0
-118 -14 -42 0
-118 -14 -56 0
-118 -14 -58 0
-118 -14 -60 0
-118 -14 -68 0
-118 -14 -70 0
-118 -14 -72 0
-118 -16 -18 0
-118 -16 -22 0
-118 -16 -26 0
-118 -16 -28 0
-118 -16 -30 0
-118 -16 -34 0
-118 -16 -38 0
-118 -16 -40 0
-118 -16 -42 0
-118 -16 -56 0
-118 -16 -58 0
-118 -16 -60 0
-118 -16 -68 0
-118 -16 -70 0
-118 -16 -72 0
-118 -18 -22 0
-118 -18 -26 0
-118 -18 -28 0
-118 -18 -30 0
-118 -18 -34 0
-118 -18 -38 0
-118 -18 -40 0
-118 -18 -42 0
-118 -18 -56 0
-118 -18 -58 0
-118 -18 -60 0
-118 -18 -68 0
-118 -18 -70 0
-118 -18 -72 0
-118 -22 -26 0
-118 -22 -28 0
-118 -22 -30 0
-118 -22 -34 0
-118 -22 -38 0
-118 -22 -40 0
-118 -22 -42 0
-118 -22 -56 0
-118 -22 -58 0
-118 -22 -60 0
-118 -22 -68 0
-118 -22 -70 0
-118 -22 -72 0
-118 -26 -28 0
-118 -26 -30 0
-118 -26 -34 0
-118 -26 -38 0
-118 -26 -40 0
-118 -26 -42 0
-118 -26 -56 0
-118 -26 -58 0
-118 -26 -60 0
-118 -26 -68 0
-118 -26 -70 0
-118 -26 -72 0
-118 -28 -30 0
-118 -28 -34 0
-118 -28 -38 0
-118 -28 -40 0
-118 -28 -42 0
-118 -28 -56 0
-118 -28 -58 0
-118 -28 -60 0
-118 -28 -68 0
-118 -28 -70 0
-118 -28 -72 0
-118 -30 -34 0
-118 -30 -38 0
-118 -30 -40 0
-118 -30 -42 0
-118 -30 -56 0
-118 -30 -58 0
-118 -30 -60 0
-118 -30 -68 0
-118 -30 -70 0
-118 -30 -72 0
-118 -34 -38 0
-118 -34 -40 0
-118 -34 -42 0
-118 -34 -56 0
-118 -34 -58 0
-118 -34 -60 0
-118 -34 -68 0
-118 -34 -70 0
-118 -34 -72 0
-118 -38 -40 0
-118 -38 -42 0
-118 -38 -56 0
-118 -38 -58 0
-118 -38 -60 0
-118 -38 -68 0
-118 -38 -70 0
-118 -38 -72 0
-118 -40 -42 0
-118 -40 -56 0
-118 -40 -58 0
-118 -40 -60 0
-118 -40 -68 0
-118 -40 -70 0
-118 -40 -72 0
-118 -42 -56 0
-118 -42 -58 0
-118 -42 -60 0
-118 -42 -68 0
-118 -42 -70 0
-118 -42 -72 0
-118 -56 -58 0
-118 -56 -60 0
-118 -56 -68 0
-118 -56 -70 0
-118 -56 -72 0
-118 -58 -60 0
-118 -58 -68 0
-118 -58 -70 0
-118 -58 -72 0
-118 -60 -68 0
-118 -60 -70 0
-118 -60 -72 0
-118 -68 -70 0
-118 -68 -72 0
-118 -70 -72 0
-47 -48 0
119 120 0
-119 1 3 7 9 13 15 17 21 23 27 29 33 35 39 41 53 57 59 63 65 71 0
-119 -1 -3 0
-119 -1 -7 0
-119 -1 -9 0
-119 -1 -13 0
-119 -1 -15 0
-119 -1 -17 0
-119 -1 -21 0
-119 -1 -23 0
-119 -1 -27 0
-119 -1 -29 0
-119 -1 -33 0
-119 -1 -35 0
-119 -1 -39 0
-119 -1 -41 0
-119 -1 -53 0
-119 -1 -57 0
-119 -1 -59 0
-119 -1 -63 0
-119 -1 -65 0
-119 -1 -71 0
-119 -3 -7 0
-119 -3 -9 0
-119 -3 -13 0
-119 -3 -15 0
-119 -3 -17 0
-119 -3 -21 0
-119 -3 -23 0
-119 -3 -27 0
-119 -3 -29 0
-119 -3 -33 0
-119 -3 -35 0
-119 -3 -39 0
-119 -3 -41 0
-119 -3 -53 0
-119 -3 -57 0
-119 -3 -59 0
-119 -3 -63 0
-119 -3 -65 0
-119 -3 -71 0
-119 -7 -9 0
-119 -7 -13 0
-119 -7 -15 0
-119 -7 -17 0
-119 -7 -21 0
-119 -7 -23 0
-119 -7 -27 0
-119 -7 -29 0
-119 -7 -33 0
-119 -7 -35 0
-119 -7 -39 0
-119 -7 -41 0
-119 -7 -53 0
-119 -7 -57 0
-119 -7 -59 0
-119 -7 -63 0
-119 -7 -65 0
-119 -7 -71 0
-119 -9 -13 0
-119 -9 -15 0
-119 -9 -17 0
-119 -9 -21 0
-119 -9 -23 0
-119 -9 -27 0
-119 -9 -29 0
-119 -9 -33 0
-119 -9 -35 0
-119 -9 -39 0
-119 -9 -41 0
-119 -9 -53 0
-119 -9 -57 0
-119 -9 -59 0
-119 -9 -63 0
-119 -9 -65 0
-119 -9 -71 0
-119 -13 -15 0
-119 -13 -17 0
-119 -13 -21 0
-119 -13 -23 0
-119 -13 -27 0
-119 -13 -29 0
-119 -13 -33 0
-119 -13 -35 0
-119 -13 -39 0
-119 -13 -41 0
-119 -13 -53 0
-119 -13 -57 0
-119 -13 -59 0
-119 -13 -63 0
-119 -13 -65 0
-119 -13 -71 0
-119 -15 -17 0
-119 -15 -21 0
-119 -15 -23 0
-119 -15 -27 0
-119 -15 -29 0
-119 -15 -33 0
-119 -15 -35 0
-119 -15 -39 0
-119 -15 -41 0
-119 -15 -53 0
-119 -15 -57 0
-119 -15 -59 0
-119 -15 -63 0
-119 -15 -65 0
-119 -15 -71 0
-119 -17 -21 0
-119 -17 -23 0
-119 -17 -27 0
-119 -17 -29 0
-119 -17 -33 0
-119 -17 -35 0
-119 -17 -39 0
-119 -17 -41 0
-119 -17 -53 0
-119 -17 -57 0
-119 -17 -59 0
-119 -17 -63 0
-119 -17 -65 0
-119 -17 -71 0
-119 -21 -23 0
-119 -21 -27 0
-119 -21 -29 0
-119 -21 -33 0
-119 -21 -35 0
-119 -21 -39 0
-119 -21 -41 0
-119 -21 -53 0
-119 -21 -57 0
-119 -21 -59 0
-119 -21 -63 0
-119 -21 -65 0
-119 -21 -71 0
-119 -23 -27 0
-119 -23 -29 0
-119 -23 -33 0
-119 -23 -35 0
-119 -23 -39 0
-119 -23 -41 0
-119 -23 -53 0
-119 -23 -57 0
-119 -23 -59 0
-119 -23 -63 0
-119 -23 -65 0
-119 -23 -71 0
-119 -27 -29 0
-119 -27 -33 0
-119 -27 -35 0
-119 -27 -39 0
-119 -27 -41 0
-119 -27 -53 0
-119 -27 -57 0
-119 -27 -59 0
-119 -27 -63 0
-119 -27 -65 0
-119 -27 -71 0
-119 -29 -33 0
-119 -29 -35 0
-119 -29 -39 0
-119 -29 -41 0
-119 -29 -53 0
-119 -29 -57 0
-119 -29 -59 0
-119 -29 -63 0
-119 -29 -65 0
-119 -29 -71 0
-119 -33 -35 0
-119 -33 -39 0
-119 -33 -41 0
-119 -33 -53 0
-119 -33 -57 0
-119 -33 -59 0
-119 -33 -63 0
-119 -33 -65 0
-119 -33 -71 0
-119 -35 -39 0
-119 -35 -41 0
-119 -35 -53 0
-119 -35 -57 0
-119 -35 -59 0
-119 -35 -63 0
-119 -35 -65 0
-119 -35 -71 0
-119 -39 -41 0
-119 -39 -53 0
-119 -39 -57 0
-119 -39 -59 0
-119 -39 -63 0
-119 -39 -65 0
-119 -39 -71 0
-119 -41 -53 0
-119 -41 -57 0
-119 -41 -59 0
-119 -41 -63 0
-119 -41 -65 0
-119 -41 -71 0
-119 -53 -57 0
-119 -53 -59 0
-119 -53 -63 0
-119 -53 -65 0
-119 -53 -71 0
-119 -57 -59 0
-119 -57 -63 0
-119 -57 -65 0
-119 -57 -71 0
-119 -59 -63 0
-119 -59 -65 0
-119 -59 -71 0
-119 -63 -65 0
-119 -63 -71 0
-119 -65 -71 0
-120 2 4 8 10 14 16 18 22 24 28 30 34 36 40 42 54 58 60 64 66 72 0
-120 -2 -4 0
-120 -2 -8 0
-120 -2 -10 0
-120 -2 -14 0
-120 -2 -16 0
-120 -2 -18 0
-120 -2 -22 0
-120 -2 -24 0
-120 -2 -28 0
-120 -2 -30 0
-120 -2 -34 0
-120 -2 -36 0
-120 -2 -40 0
-120 -2 -42 0
-120 -2 -54 0
-120 -2 -58 0
-120 -2 -60 0
-120 -2 -64 0
-120 -2 -66 0
-120 -2 -72 0
-120 -4 -8 0
-120 -4 -10 0
-120 -4 -14 0
-120 -4 -16 0
-120 -4 -18 0
-120 -4 -22 0
-120 -4 -24 0
-120 -4 -28 0
-120 -4 -30 0
-120 -4 -34 0
-120 -4 -36 0
-120 -4 -40 0
-120 -4 -42 0
-120 -4 -54 0
-120 -4 -58 0
-120 -4 -60 0
-120 -4 -64 0
-120 -4 -66 0
-120 -4 -72 0
-120 -8 -10 0
-120 -8 -14 0
-120 -8 -16 0
-120 -8 -18 0
-120 -8 -22 0
-120 -8 -24 0
-120 -8 -28 0
-120 -8 -30 0
-120 -8 -34 0
-120 -8 -36 0
-120 -8 -40 0
-120 -8 -42 0
-120 -8 -54 0
-120 -8 -58 0
-120 -8 -60 0
-120 -8 -64 0
-120 -8 -66 0
-120 -8 -72 0
-120 -10 -14 0
-120 -10 -16 0
-120 -10 -18 0
-120 -10 -22 0
-120 -10 -24 0
-120 -10 -28 0
-120 -10 -30 0
-120 -10 -34 0
-120 -10 -36 0
-120 -10 -40 0
-120 -10 -42 0
-120 -10 -54 0
-120 -10 -58 0
-120 -10 -60 0
-120 -10 -64 0
-120 -10 -66 0
-120 -10 -72 0
-120 -14 -16 0
-120 -14 -18 0
-120 -14 -22 0
-120 -14 -24 0
-120 -14 -28 0
-120 -14 -30 0
-120 -14 -34 0
-120 -14 -36 0
-120 -14 -40 0
-120 -14 -42 0
-120 -14 -54 0
-120 -14 -58 0
-120 -14 -60 0
-120 -14 -64 0
-120 -14 -66 0
-120 -14 -72 0
-120 -16 -18 0
-120 -16 -22 0
-120 -16 -24 0
-120 -16 -28 0
-120 -16 -30 0
-120 -16 -34 0
-120 -16 -36 0
-120 -16 -40 0
-120 -16 -42 0
-120 -16 -54 0
-120 -16 -58 0
-120 -16 -60 0
-120 -16 -64 0
-120 -16 -66 0
-120 -16 -72 0
-120 -18 -22 0
-120 -18 -24 0
-120 -18 -28 0
-120 -18 -30 0
-120 -18 -34 0
-120 -18 -36 0
-120 -18 -40 0
-120 -18 -42 0
-120 -18 -54 0
-120 -18 -58 0
-120 -18 -60 0
-120 -18 -64 0
-120 -18 -66 0
-120 -18 -72 0
-120 -22 -24 0
-120 -22 -28 0
-120 -22 -30 0
-120 -22 -34 0
-120 -22 -36 0
-120 -22 -40 0
-120 -22 -42 0
-120 -22 -54 0
-120 -22 -58 0
-120 -22 -60 0
-120 -22 -64 0
-120 -22 -66 0
-120 -22 -72 0
-120 -24 -28 0
-120 -24 -30 0
-120 -24 -34 0
-120 -24 -36 0
-120 -24 -40 0
-120 -24 -42 0
-120 -24 -54 0
-120 -24 -58 0
-120 -24 -60 0
-120 -24 -64 0
-120 -24 -66 0
-120 -24 -72 0
-120 -28 -30 0
-120 -28 -34 0
-120 -28 -36 0
-120 -28 -40 0
-120 -28 -42 0
-120 -28 -54 0
-120 -28 -58 0
-120 -28 -60 0
-120 -28 -64 0
-120 -28 -66 0
-120 -28 -72 0
-120 -30 -34 0
-120 -30 -36 0
-120 -30 -40 0
-120 -30 -42 0
-120 -30 -54 0
-120 -30 -58 0
-120 -30 -60 0
-120 -30 -64 0
-120 -30 -66 0
-120 -30 -72 0
-120 -34 -36 0
-120 -34 -40 0
-120 -34 -42 0
-120 -34 -54 0
-120 -34 -58 0
-120 -34 -60 0
-120 -34 -64 0
-120 -34 -66 0
-120 -34 -72 0
-120 -36 -40 0
-120 -36 -42 0
-120 -36 -54 0
-120 -36 -58 0
-120 -36 -60 0
-120 -36 -64 0
-120 -36 -66 0
-120 -36 -72 0
-120 -40 -42 0
-120 -40 -54 0
-120 -40 -58 0
-120 -40 -60 0
-120 -40 -64 0
-120 -40 -66 0
-120 -40 -72 0
-120 -42 -54 0
-120 -42 -58 0
-120 -42 -60 0
-120 -42 -64 0
-120 -42 -66 0
-120 -42 -72 0
-120 -54 -58 0
-120 -54 -60 0
-120 -54 -64 0
-120 -54 -66 0
-120 -54 -72 0
-120 -58 -60 0
-120 -58 -64 0
-120 -58 -66 0
-120 -58 -72 0
-120 -60 -64 0
-120 -60 -66 0
-120 -60 -72 0
-120 -64 -66 0
-120 -64 -72 0
-120 -66 -72 0
-49 -50 0
121 122 0
-121 1 3 7 9 11 15 17 21 23 25 29 33 35 37 41 53 55 59 61 65 69 0
-121 -1 -3 0
-121 -1 -7 0
-121 -1 -9 0
-121 -1 -11 0
-121 -1 -15 0
-121 -1 -17 0
-121 -1 -21 0
-121 -1 -23 0
-121 -1 -25 0
-121 -1 -29 0
-121 -1 -33 0
-121 -1 -35 0
-121 -1 -37 0
-121 -1 -41 0
-121 -1 -53 0
-121 -1 -55 0
-121 -1 -59 0
-121 -1 -61 0
-121 -1 -65 0
-121 -1 -69 0
-121 -3 -7 0
-121 -3 -9 0
-121 -3 -11 0
-121 -3 -15 0
-121 -3 -17 0
-121 -3 -21 0
-121 -3 -23 0
-121 -3 -25 0
-121 -3 -29 0
-121 -3 -33 0
-121 -3 -35 0
-121 -3 -37 0
-121 -3 -41 0
-121 -3 -53 0
-121 -3 -55 0
-121 -3 -59 0
-121 -3 -61 0
-121 -3 -65 0
-121 -3 -69 0
-121 -7 -9 0
-121 -7 -11 0
-121 -7 -15 0
-121 -7 -17 0
-121 -7 -21 0
-121 -7 -23 0
-121 -7 -25 0
-121 -7 -29 0
-121 -7 -33 0
-121 -7 -35 0
-121 -7 -37 0
-121 -7 -41 0
-121 -7 -53 0
-121 -7 -55 0
-121 -7 -59 0
-121 -7 -61 0
-121 -7 -65 0
-121 -7 -69 0
-121 -9 -11 0
-121 -9 -15 0
-121 -9 -17 0
-121 -9 -21 0
-121 -9 -23 0
-121 -9 -25 0
-121 -9 -29 0
-121 -9 -33 0
-121 -9 -35 0
-121 -9 -37 0
-121 -9 -41 0
-121 -9 -53 0
-121 -9 -55 0
-121 -9 -59 0
-121 -9 -61 0
-121 -9 -65 0
-121 -9 -69 0
-121 -11 -15 0
-121 -11 -17 0
-121 -11 -21 0
-121 -11 -23 0
-121 -11 -25 0
-121 -11 -29 0
-121 -11 -33 0
-121 -11 -35 0
-121 -11 -37 0
-121 -11 -41 0
-121 -11 -53 0
-121 -11 -55 0
-121 -11 -59 0
-121 -11 -61 0
-121 -11 -65 0
-121 -11 -69 0
-121 -15 -17 0
-121 -15 -21 0
-121 -15 -23 0
-121 -15 -25 0
-121 -15 -29 0
-121 -15 -33 0
-121 -15 -35 0
-121 -15 -37 0
-121 -15 -41 0
-121 -15 -53 0
-121 -15 -55 0
-121 -15 -59 0
-121 -15 -61 0
-121 -15 -65 0
-121 -15 -69 0
-121 -17 -21 0
-121 -17 -23 0
-121 -17 -25 0
-121 -17 -29 0
-121 -17 -33 0
-121 -17 -35 0
-121 -17 -37 0
-121 -17 -41 0
-121 -17 -53 0
-121 -17 -55 0
-121 -17 -59 0
-121 -17 -61 0
-121 -17 -65 0
-121 -17 -69 0
-121 -21 -23 0
-121 -21 -25 0
-121 -21 -29 0
-121 -21 -33 0
-121 -21 -35 0
-121 -21 -37 0
-121 -21 -41 0
-121 -21 -53 0
-121 -21 -55 0
-121 -21 -59 0
-121 -21 -61 0
-121 -21 -65 0
-121 -21 -69 0
-121 -23 -25 0
-121 -23 -29 0
-121 -23 -33 0
-121 -23 -35 0
-121 -23 -37 0
-121 -23 -41 0
-121 -23 -53 0
-121 -23 -55 0
-121 -23 -59 0
-121 -23 -61 0
-121 -23 -65 0
-121 -23 -69 0
-121 -25 -29 0
-121 -25 -33 0
-121 -25 -35 0
-121 -25 -37 0
-121 -25 -41 0
-121 -25 -53 0
-121 -25 -55 0
-121 -25 -59 0
-121 -25 -61 0
-121 -25 -65 0
-121 -25 -69 0
-121 -29 -33 0
-121 -29 -35 0
-121 -29 -37 0
-121 -29 -41 0
-121 -29 -53 0
-121 -29 -55 0
-121 -29 -59 0
-121 -29 -61 0
-121 -29 -65 0
-121 -29 -69 0
-121 -33 -35 0
-121 -33 -37 0
-121 -33 -41 0
-121 -33 -53 0
-121 -33 -55 0
-121 -33 -59 0
-121 -33 -61 0
-121 -33 -65 0
-121 -33 -69 0
-121 -35 -37 0
-121 -35 -41 0
-121 -35 -53 0
-121 -35 -55 0
-121 -35 -59 0
-121 -35 -61 0
-121 -35 -65 0
-121 -35 -69 0
-121 -37 -41 0
-121 -37 -53 0
-121 -37 -55 0
-121 -37 -59 0
-121 -37 -61 0
-121 -37 -65 0
-121 -37 -69 0
-121 -41 -53 0
-121 -41 -55 0
-121 -41 -59 0
-121 -41 -61 0
-121 -41 -65 0
-121 -41 -69 0
-121 -53 -55 0
-121 -53 -59 0
-121 -53 -61 0
-121 -53 -65 0
-121 -53 -69 0
-121 -55 -59 0
-121 -55 -61 0
-121 -55 -65 0
-121 -55 -69 0
-121 -59 -61 0
-121 -59 -65 0
-121 -59 -69 0
-121 -61 -65 0
-121 -61 -69 0
-121 -65 -69 0
-122 2 4 8 10 12 16 18 22 24 26 30 34 36 38 42 54 56 60 62 66 70 0
-122 -2 -4 0
-122 -2 -8 0
-122 -2 -10 0
-122 -2 -12 0
-122 -2 -16 0
-122 -2 -18 0
-122 -2 -22 0
-122 -2 -24 0
-122 -2 -26 0
-122 -2 -30 0
-122 -2 -34 0
-122 -2 -36 0
-122 -2 -38 0
-122 -2 -42 0
-122 -2 -54 0
-122 -2 -56 0
-122 -2 -60 0
-122 -2 -62 0
-122 -2 -66 0
-122 -2 -70 0
-122 -4 -8 0
-122 -4 -10 0
-122 -4 -12 0
-122 -4 -16 0
-122 -4 -18 0
-122 -4 -22 0
-122 -4 -24 0
-122 -4 -26 0
-122 -4 -30 0
-122 -4 -34 0
-122 -4 -36 0
-122 -4 -38 0
-122 -4 -42 0
-122 -4 -54 0
-122 -4 -56 0
-122 -4 -60 0
-122 -4 -62 0
-122 -4 -66 0
-122 -4 -70 0
-122 -8 -10 0
-122 -8 -12 0
-122 -8 -16 0
-122 -8 -18 0
-122 -8 -22 0
-122 -8 -24 0
-122 -8 -26 0
-122 -8 -30 0
-122 -8 -34 0
-122 -8 -36 0
-122 -8 -38 0
-122 -8 -42 0
-122 -8 -54 0
-122 -8 -56 0
-122 -8 -60 0
-122 -8 -62 0
-122 -8 -66 0
-122 -8 -70 0
-122 -10 -12 0
-122 -10 -16 0
-122 -10 -18 0
-122 -10 -22 0
-122 -10 -24 0
-122 -10 -26 0
-122 -10 -30 0
-122 -10 -34 0
-122 -10 -36 0
-122 -10 -38 0
-122 -10 -42 0
-122 -10 -54 0
-122 -10 -56 0
-122 -10 -60 0
-122 -10 -62 0
-122 -10 -66 0
-122 -10 -70 0
-122 -12 -16 0
-122 -12 -18 0
-122 -12 -22 0
-122 -12 -24 0
-122 -12 -26 0
-122 -12 -30 0
-122 -12 -34 0
-122 -12 -36 0
-122 -12 -38 0
-122 -12 -42 0
-122 -12 -54 0
-122 -12 -56 0
-122 -12 -60 0
-122 -12 -62 0
-122 -12 -66 0
-122 -12 -70 0
-122 -16 -18 0
-122 -16 -22 0
-122 -16 -24 0
-122 -16 -26 0
-122 -16 -30 0
-122 -16 -34 0
-122 -16 -36 0
-122 -16 -38 0
-122 -16 -42 0
-122 -16 -54 0
-122 -16 -56 0
-122 -16 -60 0
-122 -16 -62 0
-122 -16 -66 0
-122 -16 -70 0
-122 -18 -22 0
-122 -18 -24 0
-122 -18 -26 0
-122 -18 -30 0
-122 -18 -34 0
-122 -18 -36 0
-122 -18 -38 0
-122 -18 -42 0
-122 -18 -54 0
-122 -18 -56 0
-122 -18 -60 0
-122 -18 -62 0
-122 -18 -66 0
-122 -18 -70 0
-122 -22 -24 0
-122 -22 -26 0
-122 -22 -30 0
-122 -22 -34 0
-122 -22 -36 0
-122 -22 -38 0
-122 -22 -42 0
-122 -22 -54 0
-122 -22 -56 0
-122 -22 -60 0
-122 -22 -62 0
-122 -22 -66 0
-122 -22 -70 0
-122 -24 -26 0
-122 -24 -30 0
-122 -24 -34 0
-122 -24 -36 0
-122 -24 -38 0
-122 -24 -42 0
-122 -24 -54 0
-122 -24 -56 0
-122 -24 -60 0
-122 -24 -62 0
-122 -24 -66 0
-122 -24 -70 0
-122 -26 -30 0
-122 -26 -34 0
-122 -26 -36 0
-122 -26 -38 0
-122 -26 -42 0
-122 -26 -54 0
-122 -26 -56 0
-122 -26 -60 0
-122 -26 -62 0
-122 -26 -66 0
-122 -26 -70 0
-122 -30 -34 0
-122 -30 -36 0
-122 -30 -38 0
-122 -30 -42 0
-122 -30 -54 0
-122 -30 -56 0
-122 -30 -60 0
-122 -30 -62 0
-122 -30 -66 0
-122 -30 -70 0
-122 -34 -36 0
-122 -34 -38 0
-122 -34 -42 0
-122 -34 -54 0
-122 -34 -56 0
-122 -34 -60 0
-122 -34 -62 0
-122 -34 -66 0
-122 -34 -70 0
-122 -36 -38 0
-122 -36 -42 0
-122 -36 -54 0
-122 -36 -56 0
-122 -36 -60 0
-122 -36 -62 0
-122 -36 -66 0
-122 -36 -70 0
-122 -38 -42 0
-122 -38 -54 0
-122 -38 -56 0
-122 -38 -60 0
-122 -38 -62 0
-122 -38 -66 0
-122 -38 -70 0
-122 -42 -54 0
-122 -42 -56 0
-122 -42 -60 0
-122 -42 -62 0
-122 -42 -66 0
-122 -42 -70 0
-122 -54 -56 0
-122 -54 -60 0
-122 -54 -62 0
-122 -54 -66 0
-122 -54 -70 0
-122 -56 -60 0
-122 -56 -62 0
-122 -56 -66 0
-122 -56 -70 0
-122 -60 -62 0
-122 -60 -66 0
-122 -60 -70 0
-122 -62 -66 0
-122 -62 -70 0
-122 -66 -70 0
-51 -52 0
123 124 0
-123 1 3 7 9 11 13 17 21 23 25 27 33 35 37 39 53 55 57 61 63 67 0
-123 -1 -3 0
-123 -1 -7 0
-123 -1 -9 0
-123 -1 -11 0
-123 -1 -13 0
-123 -1 -17 0
-123 -1 -21 0
-123 -1 -23 0
-123 -1 -25 0
-123 -1 -27 0
-123 -1 -33 0
-123 -1 -35 0
-123 -1 -37 0
-123 -1 -39 0
-123 -1 -53 0
-123 -1 -55 0
-123 -1 -57 0
-123 -1 -61 0
-123 -1 -63 0
-123 -1 -67 0
-123 -3 -7 0
-123 -3 -9 0
-123 -3 -11 0
-123 -3 -13 0
-123 -3 -17 0
-123 -3 -21 0
-123 -3 -23 0
-123 -3 -25 0
-123 -3 -27 0
-123 -3 -33 0
-123 -3 -35 0
-123 -3 -37 0
-123 -3 -39 0
-123 -3 -53 0
-123 -3 -55 0
-123 -3 -57 0
-123 -3 -61 0
-123 -3 -63 0
-123 -3 -67 0
-123 -7 -9 0
-123 -7 -11 0
-123 -7 -13 0
-123 -7 -17 0
-123 -7 -21 0
-123 -7 -23 0
-123 -7 -25 0
-123 -7 -27 0
-123 -7 -33 0
-123 -7 -35 0
-123 -7 -37 0
-123 -7 -39 0
-123 -7 -53 0
-123 -7 -55 0
-123 -7 -57 0
-123 -7 -61 0
-123 -7 -63 0
-123 -7 -67 0
-123 -9 -11 0
-123 -9 -13 0
-123 -9 -17 0
-123 -9 -21 0
-123 -9 -23 0
-123 -9 -25 0
-123 -9 -27 0
-123 -9 -33 0
-123 -9 -35 0
-123 -9 -37 0
-123 -9 -39 0
-123 -9 -53 0
-123 -9 -55 0
-123 -9 -57 0
-123 -9 -61 0
-123 -9 -63 0
-123 -9 -67 0
-123 -11 -13 0
-123 -11 -17 0
-123 -11 -21 0
-123 -11 -23 0
-123 -11 -25 0
-123 -11 -27 0
-123 -11 -33 0
-123 -11 -35 0
-123 -11 -37 0
-123 -11 -39 0
-123 -11 -53 0
-123 -11 -55 0
-123 -11 -57 0
-123 -11 -61 0
-123 -11 -63 0
-123 -11 -67 0
-123 -13 -17 0
-123 -13 -21 0
-123 -13 -23 0
-123 -13 -25 0
-123 -13 -27 0
-123 -13 -33 0
-123 -13 -35 0
-123 -13 -37 0
-123 -13 -39 0
-123 -13 -53 0
-123 -13 -55 0
-123 -13 -57 0
-123 -13 -61 0
-123 -13 -63 0
-123 -13 -67 0
-123 -17 -21 0
-123 -17 -23 0
-123 -17 -25 0
-123 -17 -27 0
-123 -17 -33 0
-123 -17 -35 0
-123 -17 -37 0
-123 -17 -39 0
-123 -17 -53 0
-123 -17 -55 0
-123 -17 -57 0
-123 -17 -61 0
-123 -17 -63 0
-123 -17 -67 0
-123 -21 -23 0
-123 -21 -25 0
-123 -21 -27 0
-123 -21 -33 0
-123 -21 -35 0
-123 -21 -37 0
-123 -21 -39 0
-123 -21 -53 0
-123 -21 -55 0
-123 -21 -57 0
-123 -21 -61 0
-123 -21 -63 0
-123 -21 -67 0
-123 -23 -25 0
-123 -23 -27 0
-123 -23 -33 0
-123 -23 -35 0
-123 -23 -37 0
-123 -23 -39 0
-123 -23 -53 0
-123 -23 -55 0
-123 -23 -57 0
-123 -23 -61 0
-123 -23 -63 0
-123 -23 -67 0
-123 -25 -27 0
-123 -25 -33 0
-123 -25 -35 0
-123 -25 -37 0
-123 -25 -39 0
-123 -25 -53 0
-123 -25 -55 0
-123 -25 -57 0
-123 -25 -61 0
-123 -25 -63 0
-123 -25 -67 0
-123 -27 -33 0
-123 -27 -35 0
-123 -27 -37 0
-123 -27 -39 0
-123 -27 -53 0
-123 -27 -55 0
-123 -27 -57 0
-123 -27 -61 0
-123 -27 -63 0
-123 -27 -67 0
-123 -33 -35 0
-123 -33 -37 0
-123 -33 -39 0
-123 -33 -53 0
-123 -33 -55 0
-123 -33 -57 0
-123 -33 -61 0
-123 -33 -63 0
-123 -33 -67 0
-123 -35 -37 0
-123 -35 -39 0
-123 -35 -53 0
-123 -35 -55 0
-123 -35 -57 0
-123 -35 -61 0
-123 -35 -63 0
-123 -35 -67 0
-123 -37 -39 0
-123 -37 -53 0
-123 -37 -55 0
-123 -37 -57 0
-123 -37 -61 0
-123 -37 -63 0
-123 -37 -67 0
-123 -39 -53 0
-123 -39 -55 0
-123 -39 -57 0
-123 -39 -61 0
-123 -39 -63 0
-123 -39 -67 0
-123 -53 -55 0
-123 -53 -57 0
-123 -53 -61 0
-123 -53 -63 0
-123 -53 -67 0
-123 -55 -57 0
-123 -55 -61 0
-123 -55 -63 0
-123 -55 -67 0
-123 -57 -61 0
-123 -57 -63 0
-123 -57 -67 0
-123 -61 -63 0
-123 -61 -67 0
-123 -63 -67 0
-124 2 4 8 10 12 14 18 22 24 26 28 34 36 38 40 54 56 58 62 64 68 0
-124 -2 -4 0
-124 -2 -8 0
-124 -2 -10 0
-124 -2 -12 0
-124 -2 -14 0
-124 -2 -18 0
-124 -2 -22 0
-124 -2 -24 0
-124 -2 -26 0
-124 -2 -28 0
-124 -2 -34 0
-124 -2 -36 0
-124 -2 -38 0
-124 -2 -40 0
-124 -2 -54 0
-124 -2 -56 0
-124 -2 -58 0
-124 -2 -62 0
-124 -2 -64 0
-124 -2 -68 0
-124 -4 -8 0
-124 -4 -10 0
-124 -4 -12 0
-124 -4 -14 0
-124 -4 -18 0
-124 -4 -22 0
-124 -4 -24 0
-124 -4 -26 0
-124 -4 -28 0
-124 -4 -34 0
-124 -4 -36 0
-124 -4 -38 0
-124 -4 -40 0
-124 -4 -54 0
-124 -4 -56 0
-124 -4 -58 0
-124 -4 -62 0
-124 -4 -64 0
-124 -4 -68 0
-124 -8 -10 0
-124 -8 -12 0
-124 -8 -14 0
-124 -8 -18 0
-124 -8 -22 0
-124 -8 -24 0
-124 -8 -26 0
-124 -8 -28 0
-124 -8 -34 0
-124 -8 -36 0
-124 -8 -38 0
-124 -8 -40 0
-124 -8 -54 0
-124 -8 -56 0
-124 -8 -58 0
-124 -8 -62 0
-124 -8 -64 0
-124 -8 -68 0
-124 -10 -12 0
-124 -10 -14 0
-124 -10 -18 0
-124 -10 -22 0
-124 -10 -24 0
-124 -10 -26 0
-124 -10 -28 0
-124 -10 -34 0
-124 -10 -36 0
-124 -10 -38 0
-124 -10 -40 0
-124 -10 -54 0
-124 -10 -56 0
-124 -10 -58 0
-124 -10 -62 0
-124 -10 -64 0
-124 -10 -68 0
-124 -12 -14 0
-124 -12 -18 0
-124 -12 -22 0
-124 -12 -24 0
-124 -12 -26 0
-124 -12 -28 0
-124 -12 -34 0
-124 -12 -36 0
-124 -12 -38 0
-124 -12 -40 0
-124 -12 -54 0
-124 -12 -56 0
-124 -12 -58 0
-124 -12 -62 0
-124 -12 -64 0
-124 -12 -68 0
-124 -14 -18 0
-124 -14 -22 0
-124 -14 -24 0
-124 -14 -26 0
-124 -14 -28 0
-124 -14 -34 0
-124 -14 -36 0
-124 -14 -38 0
-124 -14 -40 0
-124 -14 -54 0
-124 -14 -56 0
-124 -14 -58 0
-124 -14 -62 0
-124 -14 -64 0
-124 -14 -68 0
-124 -18 -22 0
-124 -18 -24 0
-124 -18 -26 0
-124 -18 -28 0
-124 -18 -34 0
-124 -18 -36 0
-124 -18 -38 0
-124 -18 -40 0
-124 -18 -54 0
-124 -18 -56 0
-124 -18 -58 0
-124 -18 -62 0
-124 -18 -64 0
-124 -18 -68 0
-124 -22 -24 0
-124 -22 -26 0
-124 -22 -28 0
-124 -22 -34 0
-124 -22 -36 0
-124 -22 -38 0
-124 -22 -40 0
-124 -22 -54 0
-124 -22 -56 0
-124 -22 -58 0
-124 -22 -62 0
-124 -22 -64 0
-124 -22 -68 0
-124 -24 -26 0
-124 -24 -28 0
-124 -24 -34 0
-124 -24 -36 0
-124 -24 -38 0
-124 -24 -40 0
-124 -24 -54 0
-124 -24 -56 0
-124 -24 -58 0
-124 -24 -62 0
-124 -24 -64 0
-124 -24 -68 0
-124 -26 -28 0
-124 -26 -34 0
-124 -26 -36 0
-124 -26 -38 0
-124 -26 -40 0
-124 -26 -54 0
-124 -26 -56 0
-124 -26 -58 0
-124 -26 -62 0
-124 -26 -64 0
-124 -26 -68 0
-124 -28 -34 0
-124 -28 -36 0
-124 -28 -38 0
-124 -28 -40 0
-124 -28 -54 0
-124 -28 -56 0
-124 -28 -58 0
-124 -28 -62 0
-124 -28 -64 0
-124 -28 -68 0
-124 -34 -36 0
-124 -34 -38 0
-124 -34 -40 0
-124 -34 -54 0
-124 -34 -56 0
-124 -34 -58 0
-124 -34 -62 0
-124 -34 -64 0
-124 -34 -68 0
-124 -36 -38 0
-124 -36 -40 0
-124 -36 -54 0
-124 -36 -56 0
-124 -36 -58 0
-124 -36 -62 0
-124 -36 -64 0
-124 -36 -68 0
-124 -38 -40 0
-124 -38 -54 0
-124 -38 -56 0
-124 -38 -58 0
-124 -38 -62 0
-124 -38 -64 0
-124 -38 -68 0
-124 -40 -54 0
-124 -40 -56 0
-124 -40 -58 0
-124 -40 -62 0
-124 -40 -64 0
-124 -40 -68 0
-124 -54 -56 0
-124 -54 -58 0
-124 -54 -62 0
-124 -54 -64 0
-124 -54 -68 0
-124 -56 -58 0
-124 -56 -62 0
-124 -56 -64 0
-124 -56 -68 0
-124 -58 -62 0
-124 -58 -64 0
-124 -58 -68 0
-124 -62 -64 0
-124 -62 -68 0
-124 -64 -68 0
-53 -54 0
125 126 0
-125 1 3 5 11 13 15 17 19 25 27 29 31 37 39 41 47 49 51 67 69 71 0
-125 -1 -3 0
-125 -1 -5 0
-125 -1 -11 0
-125 -1 -13 0
-125 -1 -15 0
-125 -1 -17 0
-125 -1 -19 0
-125 -1 -25 0
-125 -1 -27 0
-125 -1 -29 0
-125 -1 -31 0
-125 -1 -37 0
-125 -1 -39 0
-125 -1 -41 0
-125 -1 -47 0
-125 -1 -49 0
-125 -1 -51 0
-125 -1 -67 0
-125 -1 -69 0
-125 -1 -71 0
-125 -3 -5 0
-125 -3 -11 0
-125 -3 -13 0
-125 -3 -15 0
-125 -3 -17 0
-125 -3 -19 0
-125 -3 -25 0
-125 -3 -27 0
-125 -3 -29 0
-125 -3 -31 0
-125 -3 -37 0
-125 -3 -39 0
-125 -3 -41 0
-125 -3 -47 0
-125 -3 -49 0
-125 -3 -51 0
-125 -3 -67 0
-125 -3 -69 0
-125 -3 -71 0
-125 -5 -11 0
-125 -5 -13 0
-125 -5 -15 0
-125 -5 -17 0
-125 -5 -19 0
-125 -5 -25 0
-125 -5 -27 0
-125 -5 -29 0
-125 -5 -31 0
-125 -5 -37 0
-125 -5 -39 0
-125 -5 -41 0
-125 -5 -47 0
-125 -5 -49 0
-125 -5 -51 0
-125 -5 -67 0
-125 -5 -69 0
-125 -5 -71 0
-125 -11 -13 0
-125 -11 -15 0
-125 -11 -17 0
-125 -11 -19 0
-125 -11 -25 0
-125 -11 -27 0
-125 -11 -29 0
-125 -11 -31 0
-125 -11 -37 0
-125 -11 -39 0
-125 -11 -41 0
-125 -11 -47 0
-125 -11 -49 0
-125 -11 -51 0
-125 -11 -67 0
-125 -11 -69 0
-125 -11 -71 0
-125 -13 -15 0
-125 -13 -17 0
-125 -13 -19 0
-125 -13 -25 0
-125 -13 -27 0
-125 -13 -29 0
-125 -13 -31 0
-125 -13 -37 0
-125 -13 -39 0
-125 -13 -41 0
-125 -13 -47 0
-125 -13 -49 0
-125 -13 -51 0
-125 -13 -67 0
-125 -13 -69 0
-125 -13 -71 0
-125 -15 -17 0
-125 -15 -19 0
-125 -15 -25 0
-125 -15 -27 0
-125 -15 -29 0
-125 -15 -31 0
-125 -15 -37 0
-125 -15 -39 0
-125 -15 -41 0
-125 -15 -47 0
-125 -15 -49 0
-125 -15 -51 0
-125 -15 -67 0
-125 -15 -69 0
-125 -15 -71 0
-125 -17 -19 0
-125 -17 -25 0
-125 -17 -27 0
-125 -17 -29 0
-125 -17 -31 0
-125 -17 -37 0
-125 -17 -39 0
-125 -17 -41 0
-125 -17 -47 0
-125 -17 -49 0
-125 -17 -51 0
-125 -17 -67 0
-125 -17 -69 0
-125 -17 -71 0
-125 -19 -25 0
-125 -19 -27 0
-125 -19 -29 0
-125 -19 -31 0
-125 -19 -37 0
-125 -19 -39 0
-125 -19 -41 0
-125 -19 -47 0
-125 -19 -49 0
-125 -19 -51 0
-125 -19 -67 0
-125 -19 -69 0
-125 -19 -71 0
-125 -25 -27 0
-125 -25 -29 0
-125 -25 -31 0
-125 -25 -37 0
-125 -25 -39 0
-125 -25 -41 0
-125 -25 -47 0
-125 -25 -49 0
-125 -25 -51 0
-125 -25 -67 0
-125 -25 -69 0
-125 -25 -71 0
-125 -27 -29 0
-125 -27 -31 0
-125 -27 -37 0
-125 -27 -39 0
-125 -27 -41 0
-125 -27 -47 0
-125 -27 -49 0
-125 -27 -51 0
-125 -27 -67 0
-125 -27 -69 0
-125 -27 -71 0
-125 -29 -31 0
-125 -29 -37 0
-125 -29 -39 0
-125 -29 -41 0
-125 -29 -47 0
-125 -29 -49 0
-125 -29 -51 0
-125 -29 -67 0
-125 -29 -69 0
-125 -29 -71 0
-125 -31 -37 0
-125 -31 -39 0
-125 -31 -41 0
-125 -31 -47 0
-125 -31 -49 0
-125 -31 -51 0
-125 -31 -67 0
-125 -31 -69 0
-125 -31 -71 0
-125 -37 -39 0
-125 -37 -41 0
-125 -37 -47 0
-125 -37 -49 0
-125 -37 -51 0
-125 -37 -67 0
-125 -37 -69 0
-125 -37 -71 0
-125 -39 -41 0
-125 -39 -47 0
-125 -39 -49 0
-125 -39 -51 0
-125 -39 -67 0
-125 -39 -69 0
-125 -39 -71 0
-125 -41 -47 0
-125 -41 -49 0
-125 -41 -51 0
-125 -41 -67 0
-125 -41 -69 0
-125 -41 -71 0
-125 -47 -49 0
-125 -47 -51 0
-125 -47 -67 0
-125 -47 -69 0
-125 -47 -71 0
-125 -49 -51 0
-125 -49 -67 0
-125 -49 -69 0
-125 -49 -71 0
-125 -51 -67 0
-125 -51 -69 0
-125 -51 -71 0
-125 -67 -69 0
-125 -67 -71 0
-125 -69 -71 0
-126 2 4 6 12 14 16 18 20 26 28 30 32 38 40 42 48 50 52 68 70 72 0
-126 -2 -4 0
-126 -2 -6 0
-126 -2 -12 0
-126 -2 -14 0
-126 -2 -16 0
-126 -2 -18 0
-126 -2 -20 0
-126 -2 -26 0
-126 -2 -28 0
-126 -2 -30 0
-126 -2 -32 0
-126 -2 -38 0
-126 -2 -40 0
-126 -2 -42 0
-126 -2 -48 0
-126 -2 -50 0
-126 -2 -52 0
-126 -2 -68 0
-126 -2 -70 0
-126 -2 -72 0
-126 -4 -6 0
-126 -4 -12 0
-126 -4 -14 0
-126 -4 -16 0
-126 -4 -18 0
-126 -4 -20 0
-126 -4 -26 0
-126 -4 -28 0
-126 -4 -30 0
-126 -4 -32 0
-126 -4 -38 0
-126 -4 -40 0
-126 -4 -42 0
-126 -4 -48 0
-126 -4 -50 0
-126 -4 -52 0
-126 -4 -68 0
-126 -4 -70 0
-126 -4 -72 0
-126 -6 -12 0
-126 -6 -14 0
-126 -6 -16 0
-126 -6 -18 0
-126 -6 -20 0
-126 -6 -26 0
-126 -6 -28 0
-126 -6 -30 0
-126 -6 -32 0
-126 -6 -38 0
-126 -6 -40 0
-126 -6 -42 0
-126 -6 -48 0
-126 -6 -50 0
-126 -6 -52 0
-126 -6 -68 0
-126 -6 -70 0
-126 -6 -72 0
-126 -12 -14 0
-126 -12 -16 0
-126 -12 -18 0
-126 -12 -20 0
-126 -12 -26 0
-126 -12 -28 0
-126 -12 -30 0
-126 -12 -32 0
-126 -12 -38 0
-126 -12 -40 0
-126 -12 -42 0
-126 -12 -48 0
-126 -12 -50 0
-126 -12 -52 0
-126 -12 -68 0
-126 -12 -70 0
-126 -12 -72 0
-126 -14 -16 0
-126 -14 -18 0
-126 -14 -20 0
-126 -14 -26 0
-126 -14 -28 0
-126 -14 -30 0
-126 -14 -32 0
-126 -14 -38 0
-126 -14 -40 0
-126 -14 -42 0
-126 -14 -48 0
-126 -14 -50 0
-126 -14 -52 0
-126 -14 -68 0
-126 -14 -70 0
-126 -14 -72 0
-126 -16 -18 0
-126 -16 -20 0
-126 -16 -26 0
-126 -16 -28 0
-126 -16 -30 0
-126 -16 -32 0
-126 -16 -38 0
-126 -16 -40 0
-126 -16 -42 0
-126 -16 -48 0
-126 -16 -50 0
-126 -16 -52 0
-126 -16 -68 0
-126 -16 -70 0
-126 -16 -72 0
-126 -18 -20 0
-126 -18 -26 0
-126 -18 -28 0
-126 -18 -30 0
-126 -18 -32 0
-126 -18 -38 0
-126 -18 -40 0
-126 -18 -42 0
-126 -18 -48 0
-126 -18 -50 0
-126 -18 -52 0
-126 -18 -68 0
-126 -18 -70 0
-126 -18 -72 0
-126 -20 -26 0
-126 -20 -28 0
-126 -20 -30 0
-126 -20 -32 0
-126 -20 -38 0
-126 -20 -40 0
-126 -20 -42 0
-126 -20 -48 0
-126 -20 -50 0
-126 -20 -52 0
-126 -20 -68 0
-126 -20 -70 0
-126 -20 -72 0
-126 -26 -28 0
-126 -26 -30 0
-126 -26 -32 0
-126 -26 -38 0
-126 -26 -40 0
-126 -26 -42 0
-126 -26 -48 0
-126 -26 -50 0
-126 -26 -52 0
-126 -26 -68 0
-126 -26 -70 0
-126 -26 -72 0
-126 -28 -30 0
-126 -28 -32 0
-126 -28 -38 0
-126 -28 -40 0
-126 -28 -42 0
-126 -28 -48 0
-126 -28 -50 0
-126 -28 -52 0
-126 -28 -68 0
-126 -28 -70 0
-126 -28 -72 0
-126 -30 -32 0
-126 -30 -38 0
-126 -30 -40 0
-126 -30 -42 0
-126 -30 -48 0
-126 -30 -50 0
-126 -30 -52 0
-126 -30 -68 0
-126 -30 -70 0
-126 -30 -72 0
-126 -32 -38 0
-126 -32 -40 0
-126 -32 -42 0
-126 -32 -48 0
-126 -32 -50 0
-126 -32 -52 0
-126 -32 -68 0
-126 -32 -70 0
-126 -32 -72 0
-126 -38 -40 0
-126 -38 -42 0
-126 -38 -48 0
-126 -38 -50 0
-126 -38 -52 0
-126 -38 -68 0
-126 -38 -70 0
-126 -38 -72 0
-126 -40 -42 0
-126 -40 -48 0
-126 -40 -50 0
-126 -40 -52 0
-126 -40 -68 0
-126 -40 -70 0
-126 -40 -72 0
-126 -42 -48 0
-126 -42 -50 0
-126 -42 -52 0
-126 -42 -68 0
-126 -42 -70 0
-126 -42 -72 0
-126 -48 -50 0
-126 -48 -52 0
-126 -48 -68 0
-126 -48 -70 0
-126 -48 -72 0
-126 -50 -52 0
-126 -50 -68 0
-126 -50 -70 0
-126 -50 -72 0
-126 -52 -68 0
-126 -52 -70 0
-126 -52 -72 0
-126 -68 -70 0
-126 -68 -72 0
-126 -70 -72 0
-55 -56 0
127 128 0
-127 1 3 5 9 13 15 17 19 23 27 29 31 35 39 41 45 49 51 63 65 71 0
-127 -1 -3 0
-127 -1 -5 0
-127 -1 -9 0
-127 -1 -13 0
-127 -1 -15 0
-127 -1 -17 0
-127 -1 -19 0
-127 -1 -23 0
-127 -1 -27 0
-127 -1 -29 0
-127 -1 -31 0
-127 -1 -35 0
-127 -1 -39 0
-127 -1 -41 0
-127 -1 -45 0
-127 -1 -49 0
-127 -1 -51 0
-127 -1 -63 0
-127 -1 -65 0
-127 -1 -71 0
-127 -3 -5 0
-127 -3 -9 0
-127 -3 -13 0
-127 -3 -15 0
-127 -3 -17 0
-127 -3 -19 0
-127 -3 -23 0
-127 -3 -27 0
-127 -3 -29 0
-127 -3 -31 0
-127 -3 -35 0
-127 -3 -39 0
-127 -3 -41 0
-127 -3 -45 0
-127 -3 -49 0
-127 -3 -51 0
-127 -3 -63 0
-127 -3 -65 0
-127 -3 -71 0
-127 -5 -9 0
-127 -5 -13 0
-127 -5 -15 0
-127 -5 -17 0
-127 -5 -19 0
-127 -5 -23 0
-127 -5 -27 0
-127 -5 -29 0
-127 -5 -31 0
-127 -5 -35 0
-127 -5 -39 0
-127 -5 -41 0
-127 -5 -45 0
-127 -5 -49 0
-127 -5 -51 0
-127 -5 -63 0
-127 -5 -65 0
-127 -5 -71 0
-127 -9 -13 0
-127 -9 -15 0
-127 -9 -17 0
-127 -9 -19 0
-127 -9 -23 0
-127 -9 -27 0
-127 -9 -29 0
-127 -9 -31 0
-127 -9 -35 0
-127 -9 -39 0
-127 -9 -41 0
-127 -9 -45 0
-127 -9 -49 0
-127 -9 -51 0
-127 -9 -63 0
-127 -9 -65 0
-127 -9 -71 0
-127 -13 -15 0
-127 -13 -17 0
-127 -13 -19 0
-127 -13 -23 0
-127 -13 -27 0
-127 -13 -29 0
-127 -13 -31 0
-127 -13 -35 0
-127 -13 -39 0
-127 -13 -41 0
-127 -13 -45 0
-127 -13 -49 0
-127 -13 -51 0
-127 -13 -63 0
-127 -13 -65 0
-127 -13 -71 0
-127 -15 -17 0
-127 -15 -19 0
-127 -15 -23 0
-127 -15 -27 0
-127 -15 -29 0
-127 -15 -31 0
-127 -15 -35 0
-127 -15 -39 0
-127 -15 -41 0
-127 -15 -45 0
-127 -15 -49 0
-127 -15 -51 0
-127 -15 -63 0
-127 -15 -65 0
-127 -15 -71 0
-127 -17 -19 0
-127 -17 -23 0
-127 -17 -27 0
-127 -17 -29 0
-127 -17 -31 0
-127 -17 -35 0
-127 -17 -39 0
-127 -17 -41 0
-127 -17 -45 0
-127 -17 -49 0
-127 -17 -51 0
-127 -17 -63 0
-127 -17 -65 0
-127 -17 -71 0
-127 -19 -23 0
-127 -19 -27 0
-127 -19 -29 0
-127 -19 -31 0
-127 -19 -35 0
-127 -19 -39 0
-127 -19 -41 0
-127 -19 -45 0
-127 -19 -49 0
-127 -19 -51 0
-127 -19 -63 0
-127 -19 -65 0
-127 -19 -71 0
-127 -23 -27 0
-127 -23 -29 0
-127 -23 -31 0
-127 -23 -35 0
-127 -23 -39 0
-127 -23 -41 0
-127 -23 -45 0
-127 -23 -49 0
-127 -23 -51 0
-127 -23 -63 0
-127 -23 -65 0
-127 -23 -71 0
-127 -27 -29 0
-127 -27 -31 0
-127 -27 -35 0
-127 -27 -39 0
-127 -27 -41 0
-127 -27 -45 0
-127 -27 -49 0
-127 -27 -51 0
-127 -27 -63 0
-127 -27 -65 0
-127 -27 -71 0
-127 -29 -31 0
-127 -29 -35 0
-127 -29 -39 0
-127 -29 -41 0
-127 -29 -45 0
-127 -29 -49 0
-127 -29 -51 0
-127 -29 -63 0
-127 -29 -65 0
-127 -29 -71 0
-127 -31 -35 0
-127 -31 -39 0
-127 -31 -41 0
-127 -31 -45 0
-127 -31 -49 0
-127 -31 -51 0
-127 -31 -63 0
-127 -31 -65 0
-127 -31 -71 0
-127 -35 -39 0
-127 -35 -41 0
-127 -35 -45 0
-127 -35 -49 0
-127 -35 -51 0
-127 -35 -63 0
-127 -35 -65 0
-127 -35 -71 0
-127 -39 -41 0
-127 -39 -45 0
-127 -39 -49 0
-127 -39 -51 0
-127 -39 -63 0
-127 -39 -65 0
-127 -39 -71 0
-127 -41 -45 0
-127 -41 -49 0
-127 -41 -51 0
-127 -41 -63 0
-127 -41 -65 0
-127 -41 -71 0
-127 -45 -49 0
-127 -45 -51 0
-127 -45 -63 0
-127 -45 -65 0
-127 -45 -71 0
-127 -49 -51 0
-127 -49 -63 0
-127 -49 -65 0
-127 -49 -71 0
-127 -51 -63 0
-127 -51 -65 0
-127 -51 -71 0
-127 -63 -65 0
-127 -63 -71 0
-127 -65 -71 0
-128 2 4 6 10 14 16 18 20 24 28 30 32 36 40 42 46 50 52 64 66 72 0
-128 -2 -4 0
-128 -2 -6 0
-128 -2 -10 0
-128 -2 -14 0
-128 -2 -16 0
-128 -2 -18 0
-128 -2 -20 0
-128 -2 -24 0
-128 -2 -28 0
-128 -2 -30 0
-128 -2 -32 0
-128 -2 -36 0
-128 -2 -40 0
-128 -2 -42 0
-128 -2 -46 0
-128 -2 -50 0
-128 -2 -52 0
-128 -2 -64 0
-128 -2 -66 0
-128 -2 -72 0
-128 -4 -6 0
-128 -4 -10 0
-128 -4 -14 0
-128 -4 -16 0
-128 -4 -18 0
-128 -4 -20 0
-128 -4 -24 0
-128 -4 -28 0
-128 -4 -30 0
-128 -4 -32 0
-128 -4 -36 0
-128 -4 -40 0
-128 -4 -42 0
-128 -4 -46 0
-128 -4 -50 0
-128 -4 -52 0
-128 -4 -64 0
-128 -4 -66 0
-128 -4 -72 0
-128 -6 -10 0
-128 -6 -14 0
-128 -6 -16 0
-128 -6 -18 0
-128 -6 -20 0
-128 -6 -24 0
-128 -6 -28 0
-128 -6 -30 0
-128 -6 -32 0
-128 -6 -36 0
-128 -6 -40 0
-128 -6 -42 0
-128 -6 -46 0
-128 -6 -50 0
-128 -6 -52 0
-128 -6 -64 0
-128 -6 -66 0
-128 -6 -72 0
-128 -10 -14 0
-128 -10 -16 0
-128 -10 -18 0
-128 -10 -20 0
-128 -10 -24 0
-128 -10 -28 0
-128 -10 -30 0
-128 -10 -32 0
-128 -10 -36 0
-128 -10 -40 0
-128 -10 -42 0
-128 -10 -46 0
-128 -10 -50 0
-128 -10 -52 0
-128 -10 -64 0
-128 -10 -66 0
-128 -10 -72 0
-128 -14 -16 0
-128 -14 -18 0
-128 -14 -20 0
-128 -14 -24 0
-128 -14 -28 0
-128 -14 -30 0
-128 -14 -32 0
-128 -14 -36 0
-128 -14 -40 0
-128 -14 -42 0
-128 -14 -46 0
-128 -14 -50 0
-128 -14 -52 0
-128 -14 -64 0
-128 -14 -66 0
-128 -14 -72 0
-128 -16 -18 0
-128 -16 -20 0
-128 -16 -24 0
-128 -16 -28 0
-128 -16 -30 0
-128 -16 -32 0
-128 -16 -36 0
-128 -16 -40 0
-128 -16 -42 0
-128 -16 -46 0
-128 -16 -50 0
-128 -16 -52 0
-128 -16 -64 0
-128 -16 -66 0
-128 -16 -72 0
-128 -18 -20 0
-128 -18 -24 0
-128 -18 -28 0
-128 -18 -30 0
-128 -18 -32 0
-128 -18 -36 0
-128 -18 -40 0
-128 -18 -42 0
-128 -18 -46 0
-128 -18 -50 0
-128 -18 -52 0
-128 -18 -64 0
-128 -18 -66 0
-128 -18 -72 0
-128 -20 -24 0
-128 -20 -28 0
-128 -20 -30 0
-128 -20 -32 0
-128 -20 -36 0
-128 -20 -40 0
-128 -20 -42 0
-128 -20 -46 0
-128 -20 -50 0
-128 -20 -52 0
-128 -20 -64 0
-128 -20 -66 0
-128 -20 -72 0
-128 -24 -28 0
-128 -24 -30 0
-128 -24 -32 0
-128 -24 -36 0
-128 -24 -40 0
-128 -24 -42 0
-128 -24 -46 0
-128 -24 -50 0
-128 -24 -52 0
-128 -24 -64 0
-128 -24 -66 0
-128 -24 -72 0
-128 -28 -30 0
-128 -28 -32 0
-128 -28 -36 0
-128 -28 -40 0
-128 -28 -42 0
-128 -28 -46 0
-128 -28 -50 0
-128 -28 -52 0
-128 -28 -64 0
-128 -28 -66 0
-128 -28 -72 0
-128 -30 -32 0
-128 -30 -36 0
-128 -30 -40 0
-128 -30 -42 0
-128 -30 -46 0
-128 -30 -50 0
-128 -30 -52 0
-128 -30 -64 0
-128 -30 -66 0
-128 -30 -72 0
-128 -32 -36 0
-128 -32 -40 0
-128 -32 -42 0
-128 -32 -46 0
-128 -32 -50 0
-128 -32 -52 0
-128 -32 -64 0
-128 -32 -66 0
-128 -32 -72 0
-128 -36 -40 0
-128 -36 -42 0
-128 -36 -46 0
-128 -36 -50 0
-128 -36 -52 0
-128 -36 -64 0
-128 -36 -66 0
-128 -36 -72 0
-128 -40 -42 0
-128 -40 -46 0
-128 -40 -50 0
-128 -40 -52 0
-128 -40 -64 0
-128 -40 -66 0
-128 -40 -72 0
-128 -42 -46 0
-128 -42 -50 0
-128 -42 -52 0
-128 -42 -64 0
-128 -42 -66 0
-128 -42 -72 0
-128 -46 -50 0
-128 -46 -52 0
-128 -46 -64 0
-128 -46 -66 0
-128 -46 -72 0
-128 -50 -52 0
-128 -50 -64 0
-128 -50 -66 0
-128 -50 -72 0
-128 -52 -64 0
-128 -52 -66 0
-128 -52 -72 0
-128 -64 -66 0
-128 -64 -72 0
-128 -66 -72 0
-57 -58 0
129 130 0
-129 1 3 5 9 11 15 17 19 23 25 29 31 35 37 41 45 47 51 61 65 69 0
-129 -1 -3 0
-129 -1 -5 0
-129 -1 -9 0
-129 -1 -11 0
-129 -1 -15 0
-129 -1 -17 0
-129 -1 -19 0
-129 -1 -23 0
-129 -1 -25 0
-129 -1 -29 0
-129 -1 -31 0
-129 -1 -35 0
-129 -1 -37 0
-129 -1 -41 0
-129 -1 -45 0
-129 -1 -47 0
-129 -1 -51 0
-129 -1 -61 0
-129 -1 -65 0
-129 -1 -69 0
-129 -3 -5 0
-129 -3 -9 0
-129 -3 -11 0
-129 -3 -15 0
-129 -3 -17 0
-129 -3 -19 0
-129 -3 -23 0
-129 -3 -25 0
-129 -3 -29 0
-129 -3 -31 0
-129 -3 -35 0
-129 -3 -37 0
-129 -3 -41 0
-129 -3 -45 0
-129 -3 -47 0
-129 -3 -51 0
-129 -3 -61 0
-129 -3 -65 0
-129 -3 -69 0
-129 -5 -9 0
-129 -5 -11 0
-129 -5 -15 0
-129 -5 -17 0
-129 -5 -19 0
-129 -5 -23 0
-129 -5 -25 0
-129 -5 -29 0
-129 -5 -31 0
-129 -5 -35 0
-129 -5 -37 0
-129 -5 -41 0
-129 -5 -45 0
-129 -5 -47 0
-129 -5 -51 0
-129 -5 -61 0
-129 -5 -65 0
-129 -5 -69 0
-129 -9 -11 0
-129 -9 -15 0
-129 -9 -17 0
-129 -9 -19 0
-129 -9 -23 0
-129 -9 -25 0
-129 -9 -29 0
-129 -9 -31 0
-129 -9 -35 0
-129 -9 -37 0
-129 -9 -41 0
-129 -9 -45 0
-129 -9 -47 0
-129 -9 -51 0
-129 -9 -61 0
-129 -9 -65 0
-129 -9 -69 0
-129 -11 -15 0
-129 -11 -17 0
-129 -11 -19 0
-129 -11 -23 0
-129 -11 -25 0
-129 -11 -29 0
-129 -11 -31 0
-129 -11 -35 0
-129 -11 -37 0
-129 -11 -41 0
-129 -11 -45 0
-129 -11 -47 0
-129 -11 -51 0
-129 -11 -61 0
-129 -11 -65 0
-129 -11 -69 0
-129 -15 -17 0
-129 -15 -19 0
-129 -15 -23 0
-129 -15 -25 0
-129 -15 -29 0
-129 -15 -31 0
-129 -15 -35 0
-129 -15 -37 0
-129 -15 -41 0
-129 -15 -45 0
-129 -15 -47 0
-129 -15 -51 0
-129 -15 -61 0
-129 -15 -65 0
-129 -15 -69 0
-129 -17 -19 0
-129 -17 -23 0
-129 -17 -25 0
-129 -17 -29 0
-129 -17 -31 0
-129 -17 -35 0
-129 -17 -37 0
-129 -17 -41 0
-129 -17 -45 0
-129 -17 -47 0
-129 -17 -51 0
-129 -17 -61 0
-129 -17 -65 0
-129 -17 -69 0
-129 -19 -23 0
-129 -19 -25 0
-129 -19 -29 0
-129 -19 -31 0
-129 -19 -35 0
-129 -19 -37 0
-129 -19 -41 0
-129 -19 -45 0
-129 -19 -47 0
-129 -19 -51 0
-129 -19 -61 0
-129 -19 -65 0
-129 -19 -69 0
-129 -23 -25 0
-129 -23 -29 0
-129 -23 -31 0
-129 -23 -35 0
-129 -23 -37 0
-129 -23 -41 0
-129 -23 -45 0
-129 -23 -47 0
-129 -23 -51 0
-129 -23 -61 0
-129 -23 -65 0
-129 -23 -69 0
-129 -25 -29 0
-129 -25 -31 0
-129 -25 -35 0
-129 -25 -37 0
-129 -25 -41 0
-129 -25 -45 0
-129 -25 -47 0
-129 -25 -51 0
-129 -25 -61 0
-129 -25 -65 0
-129 -25 -69 0
-129 -29 -31 0
-129 -29 -35 0
-129 -29 -37 0
-129 -29 -41 0
-129 -29 -45 0
-129 -29 -47 0
-129 -29 -51 0
-129 -29 -61 0
-129 -29 -65 0
-129 -29 -69 0
-129 -31 -35 0
-129 -31 -37 0
-129 -31 -41 0
-129 -31 -45 0
-129 -31 -47 0
-129 -31 -51 0
-129 -31 -61 0
-129 -31 -65 0
-129 -31 -69 0
-129 -35 -37 0
-129 -35 -41 0
-129 -35 -45 0
-129 -35 -47 0
-129 -35 -51 0
-129 -35 -61 0
-129 -35 -65 0
-129 -35 -69 0
-129 -37 -41 0
-129 -37 -45 0
-129 -37 -47 0
-129 -37 -51 0
-129 -37 -61 0
-129 -37 -65 0
-129 -37 -69 0
-129 -41 -45 0
-129 -41 -47 0
-129 -41 -51 0
-129 -41 -61 0
-129 -41 -65 0
-129 -41 -69 0
-129 -45 -47 0
-129 -45 -51 0
-129 -45 -61 0
-129 -45 -65 0
-129 -45 -69 0
-129 -47 -51 0
-129 -47 -61 0
-129 -47 -65 0
-129 -47 -69 0
-129 -51 -61 0
-129 -51 -65 0
-129 -51 -69 0
-129 -61 -65 0
-129 -61 -69 0
-129 -65 -69 0
-130 2 4 6 10 12 16 18 20 24 26 30 32 36 38 42 46 48 52 62 66 70 0
-130 -2 -4 0
-130 -2 -6 0
-130 -2 -10 0
-130 -2 -12 0
-130 -2 -16 0
-130 -2 -18 0
-130 -2 -20 0
-130 -2 -24 0
-130 -2 -26 0
-130 -2 -30 0
-130 -2 -32 0
-130 -2 -36 0
-130 -2 -38 0
-130 -2 -42 0
-130 -2 -46 0
-130 -2 -48 0
-130 -2 -52 0
-130 -2 -62 0
-130 -2 -66 0
-130 -2 -70 0
-130 -4 -6 0
-130 -4 -10 0
-130 -4 -12 0
-130 -4 -16 0
-130 -4 -18 0
-130 -4 -20 0
-130 -4 -24 0
-130 -4 -26 0
-130 -4 -30 0
-130 -4 -32 0
-130 -4 -36 0
-130 -4 -38 0
-130 -4 -42 0
-130 -4 -46 0
-130 -4 -48 0
-130 -4 -52 0
-130 -4 -62 0
-130 -4 -66 0
-130 -4 -70 0
-130 -6 -10 0
-130 -6 -12 0
-130 -6 -16 0
-130 -6 -18 0
-130 -6 -20 0
-130 -6 -24 0
-130 -6 -26 0
-130 -6 -30 0
-130 -6 -32 0
-130 -6 -36 0
-130 -6 -38 0
-130 -6 -42 0
-130 -6 -46 0
-130 -6 -48 0
-130 -6 -52 0
-130 -6 -62 0
-130 -6 -66 0
-130 -6 -70 0
-130 -10 -12 0
-130 -10 -16 0
-130 -10 -18 0
-130 -10 -20 0
-130 -10 -24 0
-130 -10 -26 0
-130 -10 -30 0
-130 -10 -32 0
-130 -10 -36 0
-130 -10 -38 0
-130 -10 -42 0
-130 -10 -46 0
-130 -10 -48 0
-130 -10 -52 0
-130 -10 -62 0
-130 -10 -66 0
-130 -10 -70 0
-130 -12 -16 0
-130 -12 -18 0
-130 -12 -20 0
-130 -12 -24 0
-130 -12 -26 0
-130 -12 -30 0
-130 -12 -32 0
-130 -12 -36 0
-130 -12 -38 0
-130 -12 -42 0
-130 -12 -46 0
-130 -12 -48 0
-130 -12 -52 0
-130 -12 -62 0
-130 -12 -66 0
-130 -12 -70 0
-130 -16 -18 0
-130 -16 -20 0
-130 -16 -24 0
-130 -16 -26 0
-130 -16 -30 0
-130 -16 -32 0
-130 -16 -36 0
-130 -16 -38 0
-130 -16 -42 0
-130 -16 -46 0
-130 -16 -48 0
-130 -16 -52 0
-130 -16 -62 0
-130 -16 -66 0
-130 -16 -70 0
-130 -18 -20 0
-130 -18 -24 0
-130 -18 -26 0
-130 -18 -30 0
-130 -18 -32 0
-130 -18 -36 0
-130 -18 -38 0
-130 -18 -42 0
-130 -18 -46 0
-130 -18 -48 0
-130 -18 -52 0
-130 -18 -62 0
-130 -18 -66 0
-130 -18 -70 0
-130 -20 -24 0
-130 -20 -26 0
-130 -20 -30 0
-130 -20 -32 0
-130 -20 -36 0
-130 -20 -38 0
-130 -20 -42 0
-130 -20 -46 0
-130 -20 -48 0
-130 -20 -52 0
-130 -20 -62 0
-130 -20 -66 0
-130 -20 -70 0
-130 -24 -26 0
-130 -24 -30 0
-130 -24 -32 0
-130 -24 -36 0
-130 -24 -38 0
-130 -24 -42 0
-130 -24 -46 0
-130 -24 -48 0
-130 -24 -52 0
-130 -24 -62 0
-130 -24 -66 0
-130 -24 -70 0
-130 -26 -30 0
-130 -26 -32 0
-130 -26 -36 0
-130 -26 -38 0
-130 -26 -42 0
-130 -26 -46 0
-130 -26 -48 0
-130 -26 -52 0
-130 -26 -62 0
-130 -26 -66 0
-130 -26 -70 0
-130 -30 -32 0
-130 -30 -36 0
-130 -30 -38 0
-130 -30 -42 0
-130 -30 -46 0
-130 -30 -48 0
-130 -30 -52 0
-130 -30 -62 0
-130 -30 -66 0
-130 -30 -70 0
-130 -32 -36 0
-130 -32 -38 0
-130 -32 -42 0
-130 -32 -46 0
-130 -32 -48 0
-130 -32 -52 0
-130 -32 -62 0
-130 -32 -66 0
-130 -32 -70 0
-130 -36 -38 0
-130 -36 -42 0
-130 -36 -46 0
-130 -36 -48 0
-130 -36 -52 0
-130 -36 -62 0
-130 -36 -66 0
-130 -36 -70 0
-130 -38 -42 0
-130 -38 -46 0
-130 -38 -48 0
-130 -38 -52 0
-130 -38 -62 0
-130 -38 -66 0
-130 -38 -70 0
-130 -42 -46 0
-130 -42 -48 0
-130 -42 -52 0
-130 -42 -62 0
-130 -42 -66 0
-130 -42 -70 0
-130 -46 -48 0
-130 -46 -52 0
-130 -46 -62 0
-130 -46 -66 0
-130 -46 -70 0
-130 -48 -52 0
-130 -48 -62 0
-130 -48 -66 0
-130 -48 -70 0
-130 -52 -62 0
-130 -52 -66 0
-130 -52 -70 0
-130 -62 -66 0
-130 -62 -70 0
-130 -66 -70 0
-59 -60 0
131 132 0
-131 1 3 5 9 11 13 17 19 23 25 27 31 35 37 39 45 47 49 61 63 67 0
-131 -1 -3 0
-131 -1 -5 0
-131 -1 -9 0
-131 -1 -11 0
-131 -1 -13 0
-131 -1 -17 0
-131 -1 -19 0
-131 -1 -23 0
-131 -1 -25 0
-131 -1 -27 0
-131 -1 -31 0
-131 -1 -35 0
-131 -1 -37 0
-131 -1 -39 0
-131 -1 -45 0
-131 -1 -47 0
-131 -1 -49 0
-131 -1 -61 0
-131 -1 -63 0
-131 -1 -67 0
-131 -3 -5 0
-131 -3 -9 0
-131 -3 -11 0
-131 -3 -13 0
-131 -3 -17 0
-131 -3 -19 0
-131 -3 -23 0
-131 -3 -25 0
-131 -3 -27 0
-131 -3 -31 0
-131 -3 -35 0
-131 -3 -37 0
-131 -3 -39 0
-131 -3 -45 0
-131 -3 -47 0
-131 -3 -49 0
-131 -3 -61 0
-131 -3 -63 0
-131 -3 -67 0
-131 -5 -9 0
-131 -5 -11 0
-131 -5 -13 0
-131 -5 -17 0
-131 -5 -19 0
-131 -5 -23 0
-131 -5 -25 0
-131 -5 -27 0
-131 -5 -31 0
-131 -5 -35 0
-131 -5 -37 0
-131 -5 -39 0
-131 -5 -45 0
-131 -5 -47 0
-131 -5 -49 0
-131 -5 -61 0
-131 -5 -63 0
-131 -5 -67 0
-131 -9 -11 0
-131 -9 -13 0
-131 -9 -17 0
-131 -9 -19 0
-131 -9 -23 0
-131 -9 -25 0
-131 -9 -27 0
-131 -9 -31 0
-131 -9 -35 0
-131 -9 -37 0
-131 -9 -39 0
-131 -9 -45 0
-131 -9 -47 0
-131 -9 -49 0
-131 -9 -61 0
-131 -9 -63 0
-131 -9 -67 0
-131 -11 -13 0
-131 -11 -17 0
-131 -11 -19 0
-131 -11 -23 0
-131 -11 -25 0
-131 -11 -27 0
-131 -11 -31 0
-131 -11 -35 0
-131 -11 -37 0
-131 -11 -39 0
-131 -11 -45 0
-131 -11 -47 0
-131 -11 -49 0
-131 -11 -61 0
-131 -11 -63 0
-131 -11 -67 0
-131 -13 -17 0
-131 -13 -19 0
-131 -13 -23 0
-131 -13 -25 0
-131 -13 -27 0
-131 -13 -31 0
-131 -13 -35 0
-131 -13 -37 0
-131 -13 -39 0
-131 -13 -45 0
-131 -13 -47 0
-131 -13 -49 0
-131 -13 -61 0
-131 -13 -63 0
-131 -13 -67 0
-131 -17 -19 0
-131 -17 -23 0
-131 -17 -25 0
-131 -17 -27 0
-131 -17 -31 0
-131 -17 -35 0
-131 -17 -37 0
-131 -17 -39 0
-131 -17 -45 0
-131 -17 -47 0
-131 -17 -49 0
-131 -17 -61 0
-131 -17 -63 0
-131 -17 -67 0
-131 -19 -23 0
-131 -19 -25 0
-131 -19 -27 0
-131 -19 -31 0
-131 -19 -35 0
-131 -19 -37 0
-131 -19 -39 0
-131 -19 -45 0
-131 -19 -47 0
-131 -19 -49 0
-131 -19 -61 0
-131 -19 -63 0
-131 -19 -67 0
-131 -23 -25 0
-131 -23 -27 0
-131 -23 -31 0
-131 -23 -35 0
-131 -23 -37 0
-131 -23 -39 0
-131 -23 -45 0
-131 -23 -47 0
-131 -23 -49 0
-131 -23 -61 0
-131 -23 -63 0
-131 -23 -67 0
-131 -25 -27 0
-131 -25 -31 0
-131 -25 -35 0
-131 -25 -37 0
-131 -25 -39 0
-131 -25 -45 0
-131 -25 -47 0
-131 -25 -49 0
-131 -25 -61 0
-131 -25 -63 0
-131 -25 -67 0
-131 -27 -31 0
-131 -27 -35 0
-131 -27 -37 0
-131 -27 -39 0
-131 -27 -45 0
-131 -27 -47 0
-131 -27 -49 0
-131 -27 -61 0
-131 -27 -63 0
-131 -27 -67 0
-131 -31 -35 0
-131 -31 -37 0
-131 -31 -39 0
-131 -31 -45 0
-131 -31 -47 0
-131 -31 -49 0
-131 -31 -61 0
-131 -31 -63 0
-131 -31 -67 0
-131 -35 -37 0
-131 -35 -39 0
-131 -35 -45 0
-131 -35 -47 0
-131 -35 -49 0
-131 -35 -61 0
-131 -35 -63 0
-131 -35 -67 0
-131 -37 -39 0
-131 -37 -45 0
-131 -37 -47 0
-131 -37 -49 0
-131 -37 -61 0
-131 -37 -63 0
-131 -37 -67 0
-131 -39 -45 0
-131 -39 -47 0
-131 -39 -49 0
-131 -39 -61 0
-131 -39 -63 0
-131 -39 -67 0
-131 -45 -47 0
-131 -45 -49 0
-131 -45 -61 0
-131 -45 -63 0
-131 -45 -67 0
-131 -47 -49 0
-131 -47 -61 0
-131 -47 -63 0
-131 -47 -67 0
-131 -49 -61 0
-131 -49 -63 0
-131 -49 -67 0
-131 -61 -63 0
-131 -61 -67 0
-131 -63 -67 0
-132 2 4 6 10 12 14 18 20 24 26 28 32 36 38 40 46 48 50 62 64 68 0
-132 -2 -4 0
-132 -2 -6 0
-132 -2 -10 0
-132 -2 -12 0
-132 -2 -14 0
-132 -2 -18 0
-132 -2 -20 0
-132 -2 -24 0
-132 -2 -26 0
-132 -2 -28 0
-132 -2 -32 0
-132 -2 -36 0
-132 -2 -38 0
-132 -2 -40 0
-132 -2 -46 0
-132 -2 -48 0
-132 -2 -50 0
-132 -2 -62 0
-132 -2 -64 0
-132 -2 -68 0
-132 -4 -6 0
-132 -4 -10 0
-132 -4 -12 0
-132 -4 -14 0
-132 -4 -18 0
-132 -4 -20 0
-132 -4 -24 0
-132 -4 -26 0
-132 -4 -28 0
-132 -4 -32 0
-132 -4 -36 0
-132 -4 -38 0
-132 -4 -40 0
-132 -4 -46 0
-132 -4 -48 0
-132 -4 -50 0
-132 -4 -62 0
-132 -4 -64 0
-132 -4 -68 0
-132 -6 -10 0
-132 -6 -12 0
-132 -6 -14 0
-132 -6 -18 0
-132 -6 -20 0
-132 -6 -24 0
-132 -6 -26 0
-132 -6 -28 0
-132 -6 -32 0
-132 -6 -36 0
-132 -6 -38 0
-132 -6 -40 0
-132 -6 -46 0
-132 -6 -48 0
-132 -6 -50 0
-132 -6 -62 0
-132 -6 -64 0
-132 -6 -68 0
-132 -10 -12 0
-132 -10 -14 0
-132 -10 -18 0
-132 -10 -20 0
-132 -10 -24 0
-132 -10 -26 0
-132 -10 -28 0
-132 -10 -32 0
-132 -10 -36 0
-132 -10 -38 0
-132 -10 -40 0
-132 -10 -46 0
-132 -10 -48 0
-132 -10 -50 0
-132 -10 -62 0
-132 -10 -64 0
-132 -10 -68 0
-132 -12 -14 0
-132 -12 -18 0
-132 -12 -20 0
-132 -12 -24 0
-132 -12 -26 0
-132 -12 -28 0
-132 -12 -32 0
-132 -12 -36 0
-132 -12 -38 0
-132 -12 -40 0
-132 -12 -46 0
-132 -12 -48 0
-132 -12 -50 0
-132 -12 -62 0
-132 -12 -64 0
-132 -12 -68 0
-132 -14 -18 0
-132 -14 -20 0
-132 -14 -24 0
-132 -14 -26 0
-132 -14 -28 0
-132 -14 -32 0
-132 -14 -36 0
-132 -14 -38 0
-132 -14 -40 0
-132 -14 -46 0
-132 -14 -48 0
-132 -14 -50 0
-132 -14 -62 0
-132 -14 -64 0
-132 -14 -68 0
-132 -18 -20 0
-132 -18 -24 0
-132 -18 -26 0
-132 -18 -28 0
-132 -18 -32 0
-132 -18 -36 0
-132 -18 -38 0
-132 -18 -40 0
-132 -18 -46 0
-132 -18 -48 0
-132 -18 -50 0
-132 -18 -62 0
-132 -18 -64 0
-132 -18 -68 0
-132 -20 -24 0
-132 -20 -26 0
-132 -20 -28 0
-132 -20 -32 0
-132 -20 -36 0
-132 -20 -38 0
-132 -20 -40 0
-132 -20 -46 0
-132 -20 -48 0
-132 -20 -50 0
-132 -20 -62 0
-132 -20 -64 0
-132 -20 -68 0
-132 -24 -26 0
-132 -24 -28 0
-132 -24 -32 0
-132 -24 -36 0
-132 -24 -38 0
-132 -24 -40 0
-132 -24 -46 0
-132 -24 -48 0
-132 -24 -50 0
-132 -24 -62 0
-132 -24 -64 0
-132 -24 -68 0
-132 -26 -28 0
-132 -26 -32 0
-132 -26 -36 0
-132 -26 -38 0
-132 -26 -40 0
-132 -26 -46 0
-132 -26 -48 0
-132 -26 -50 0
-132 -26 -62 0
-132 -26 -64 0
-132 -26 -68 0
-132 -28 -32 0
-132 -28 -36 0
-132 -28 -38 0
-132 -28 -40 0
-132 -28 -46 0
-132 -28 -48 0
-132 -28 -50 0
-132 -28 -62 0
-132 -28 -64 0
-132 -28 -68 0
-132 -32 -36 0
-132 -32 -38 0
-132 -32 -40 0
-132 -32 -46 0
-132 -32 -48 0
-132 -32 -50 0
-132 -32 -62 0
-132 -32 -64 0
-132 -32 -68 0
-132 -36 -38 0
-132 -36 -40 0
-132 -36 -46 0
-132 -36 -48 0
-132 -36 -50 0
-132 -36 -62 0
-132 -36 -64 0
-132 -36 -68 0
-132 -38 -40 0
-132 -38 -46 0
-132 -38 -48 0
-132 -38 -50 0
-132 -38 -62 0
-132 -38 -64 0
-132 -38 -68 0
-132 -40 -46 0
-132 -40 -48 0
-132 -40 -50 0
-132 -40 -62 0
-132 -40 -64 0
-132 -40 -68 0
-132 -46 -48 0
-132 -46 -50 0
-132 -46 -62 0
-132 -46 -64 0
-132 -46 -68 0
-132 -48 -50 0
-132 -48 -62 0
-132 -48 -64 0
-132 -48 -68 0
-132 -50 -62 0
-132 -50 -64 0
-132 -50 -68 0
-132 -62 -64 0
-132 -62 -68 0
-132 -64 -68 0
-61 -62 0
133 134 0
-133 1 3 5 7 13 15 17 19 21 27 29 31 33 39 41 43 49 51 57 59 71 0
-133 -1 -3 0
-133 -1 -5 0
-133 -1 -7 0
-133 -1 -13 0
-133 -1 -15 0
-133 -1 -17 0
-133 -1 -19 0
-133 -1 -21 0
-133 -1 -27 0
-133 -1 -29 0
-133 -1 -31 0
-133 -1 -33 0
-133 -1 -39 0
-133 -1 -41 0
-133 -1 -43 0
-133 -1 -49 0
-133 -1 -51 0
-133 -1 -57 0
-133 -1 -59 0
-133 -1 -71 0
-133 -3 -5 0
-133 -3 -7 0
-133 -3 -13 0
-133 -3 -15 0
-133 -3 -17 0
-133 -3 -19 0
-133 -3 -21 0
-133 -3 -27 0
-133 -3 -29 0
-133 -3 -31 0
-133 -3 -33 0
-133 -3 -39 0
-133 -3 -41 0
-133 -3 -43 0
-133 -3 -49 0
-133 -3 -51 0
-133 -3 -57 0
-133 -3 -59 0
-133 -3 -71 0
-133 -5 -7 0
-133 -5 -13 0
-133 -5 -15 0
-133 -5 -17 0
-133 -5 -19 0
-133 -5 -21 0
-133 -5 -27 0
-133 -5 -29 0
-133 -5 -31 0
-133 -5 -33 0
-133 -5 -39 0
-133 -5 -41 0
-133 -5 -43 0
-133 -5 -49 0
-133 -5 -51 0
-133 -5 -57 0
-133 -5 -59 0
-133 -5 -71 0
-133 -7 -13 0
-133 -7 -15 0
-133 -7 -17 0
-133 -7 -19 0
-133 -7 -21 0
-133 -7 -27 0
-133 -7 -29 0
-133 -7 -31 0
-133 -7 -33 0
-133 -7 -39 0
-133 -7 -41 0
-133 -7 -43 0
-133 -7 -49 0
-133 -7 -51 0
-133 -7 -57 0
-133 -7 -59 0
-133 -7 -71 0
-133 -13 -15 0
-133 -13 -17 0
-133 -13 -19 0
-133 -13 -21 0
-133 -13 -27 0
-133 -13 -29 0
-133 -13 -31 0
-133 -13 -33 0
-133 -13 -39 0
-133 -13 -41 0
-133 -13 -43 0
-133 -13 -49 0
-133 -13 -51 0
-133 -13 -57 0
-133 -13 -59 0
-133 -13 -71 0
-133 -15 -17 0
-133 -15 -19 0
-133 -15 -21 0
-133 -15 -27 0
-133 -15 -29 0
-133 -15 -31 0
-133 -15 -33 0
-133 -15 -39 0
-133 -15 -41 0
-133 -15 -43 0
-133 -15 -49 0
-133 -15 -51 0
-133 -15 -57 0
-133 -15 -59 0
-133 -15 -71 0
-133 -17 -19 0
-133 -17 -21 0
-133 -17 -27 0
-133 -17 -29 0
-133 -17 -31 0
-133 -17 -33 0
-133 -17 -39 0
-133 -17 -41 0
-133 -17 -43 0
-133 -17 -49 0
-133 -17 -51 0
-133 -17 -57 0
-133 -17 -59 0
-133 -17 -71 0
-133 -19 -21 0
-133 -19 -27 0
-133 -19 -29 0
-133 -19 -31 0
-133 -19 -33 0
-133 -19 -39 0
-133 -19 -41 0
-133 -19 -43 0
-133 -19 -49 0
-133 -19 -51 0
-133 -19 -57 0
-133 -19 -59 0
-133 -19 -71 0
-133 -21 -27 0
-133 -21 -29 0
-133 -21 -31 0
-133 -21 -33 0
-133 -21 -39 0
-133 -21 -41 0
-133 -21 -43 0
-133 -21 -49 0
-133 -21 -51 0
-133 -21 -57 0
-133 -21 -59 0
-133 -21 -71 0
-133 -27 -29 0
-133 -27 -31 0
-133 -27 -33 0
-133 -27 -39 0
-133 -27 -41 0
-133 -27 -43 0
-133 -27 -49 0
-133 -27 -51 0
-133 -27 -57 0
-133 -27 -59 0
-133 -27 -71 0
-133 -29 -31 0
-133 -29 -33 0
-133 -29 -39 0
-133 -29 -41 0
-133 -29 -43 0
-133 -29 -49 0
-133 -29 -51 0
-133 -29 -57 0
-133 -29 -59 0
-133 -29 -71 0
-133 -31 -33 0
-133 -31 -39 0
-133 -31 -41 0
-133 -31 -43 0
-133 -31 -49 0
-133 -31 -51 0
-133 -31 -57 0
-133 -31 -59 0
-133 -31 -71 0
-133 -33 -39 0
-133 -33 -41 0
-133 -33 -43 0
-133 -33 -49 0
-133 -33 -51 0
-133 -33 -57 0
-133 -33 -59 0
-133 -33 -71 0
-133 -39 -41 0
-133 -39 -43 0
-133 -39 -49 0
-133 -39 -51 0
-133 -39 -57 0
-133 -39 -59 0
-133 -39 -71 0
-133 -41 -43 0
-133 -41 -49 0
-133 -41 -51 0
-133 -41 -57 0
-133 -41 -59 0
-133 -41 -71 0
-133 -43 -49 0
-133 -43 -51 0
-133 -43 -57 0
-133 -43 -59 0
-133 -43 -71 0
-133 -49 -51 0
-133 -49 -57 0
-133 -49 -59 0
-133 -49 -71 0
-133 -51 -57 0
-133 -51 -59 0
-133 -51 -71 0
-133 -57 -59 0
-133 -57 -71 0
-133 -59 -71 0
-134 2 4 6 8 14 16 18 20 22 28 30 32 34 40 42 44 50 52 58 60 72 0
-134 -2 -4 0
-134 -2 -6 0
-134 -2 -8 0
-134 -2 -14 0
-134 -2 -16 0
-134 -2 -18 0
-134 -2 -20 0
-134 -2 -22 0
-134 -2 -28 0
-134 -2 -30 0
-134 -2 -32 0
-134 -2 -34 0
-134 -2 -40 0
-134 -2 -42 0
-134 -2 -44 0
-134 -2 -50 0
-134 -2 -52 0
-134 -2 -58 0
-134 -2 -60 0
-134 -2 -72 0
-134 -4 -6 0
-134 -4 -8 0
-134 -4 -14 0
-134 -4 -16 0
-134 -4 -18 0
-134 -4 -20 0
-134 -4 -22 0
-134 -4 -28 0
-134 -4 -30 0
-134 -4 -32 0
-134 -4 -34 0
-134 -4 -40 0
-134 -4 -42 0
-134 -4 -44 0
-134 -4 -50 0
-134 -4 -52 0
-134 -4 -58 0
-134 -4 -60 0
-134 -4 -72 0
-134 -6 -8 0
-134 -6 -14 0
-134 -6 -16 0
-134 -6 -18 0
-134 -6 -20 0
-134 -6 -22 0
-134 -6 -28 0
-134 -6 -30 0
-134 -6 -32 0
-134 -6 -34 0
-134 -6 -40 0
-134 -6 -42 0
-134 -6 -44 0
-134 -6 -50 0
-134 -6 -52 0
-134 -6 -58 0
-134 -6 -60 0
-134 -6 -72 0
-134 -8 -14 0
-134 -8 -16 0
-134 -8 -18 0
-134 -8 -20 0
-134 -8 -22 0
-134 -8 -28 0
-134 -8 -30 0
-134 -8 -32 0
-134 -8 -34 0
-134 -8 -40 0
-134 -8 -42 0
-134 -8 -44 0
-134 -8 -50 0
-134 -8 -52 0
-134 -8 -58 0
-134 -8 -60 0
-134 -8 -72 0
-134 -14 -16 0
-134 -14 -18 0
-134 -14 -20 0
-134 -14 -22 0
-134 -14 -28 0
-134 -14 -30 0
-134 -14 -32 0
-134 -14 -34 0
-134 -14 -40 0
-134 -14 -42 0
-134 -14 -44 0
-134 -14 -50 0
-134 -14 -52 0
-134 -14 -58 0
-134 -14 -60 0
-134 -14 -72 0
-134 -16 -18 0
-134 -16 -20 0
-134 -16 -22 0
-134 -16 -28 0
-134 -16 -30 0
-134 -16 -32 0
-134 -16 -34 0
-134 -16 -40 0
-134 -16 -42 0
-134 -16 -44 0
-134 -16 -50 0
-134 -16 -52 0
-134 -16 -58 0
-134 -16 -60 0
-134 -16 -72 0
-134 -18 -20 0
-134 -18 -22 0
-134 -18 -28 0
-134 -18 -30 0
-134 -18 -32 0
-134 -18 -34 0
-134 -18 -40 0
-134 -18 -42 0
-134 -18 -44 0
-134 -18 -50 0
-134 -18 -52 0
-134 -18 -58 0
-134 -18 -60 0
-134 -18 -72 0
-134 -20 -22 0
-134 -20 -28 0
-134 -20 -30 0
-134 -20 -32 0
-134 -20 -34 0
-134 -20 -40 0
-134 -20 -42 0
-134 -20 -44 0
-134 -20 -50 0
-134 -20 -52 0
-134 -20 -58 0
-134 -20 -60 0
-134 -20 -72 0
-134 -22 -28 0
-134 -22 -30 0
-134 -22 -32 0
-134 -22 -34 0
-134 -22 -40 0
-134 -22 -42 0
-134 -22 -44 0
-134 -22 -50 0
-134 -22 -52 0
-134 -22 -58 0
-134 -22 -60 0
-134 -22 -72 0
-134 -28 -30 0
-134 -28 -32 0
-134 -28 -34 0
-134 -28 -40 0
-134 -28 -42 0
-134 -28 -44 0
-134 -28 -50 0
-134 -28 -52 0
-134 -28 -58 0
-134 -28 -60 0
-134 -28 -72 0
-134 -30 -32 0
-134 -30 -34 0
-134 -30 -40 0
-134 -30 -42 0
-134 -30 -44 0
-134 -30 -50 0
-134 -30 -52 0
-134 -30 -58 0
-134 -30 -60 0
-134 -30 -72 0
-134 -32 -34 0
-134 -32 -40 0
-134 -32 -42 0
-134 -32 -44 0
-134 -32 -50 0
-134 -32 -52 0
-134 -32 -58 0
-134 -32 -60 0
-134 -32 -72 0
-134 -34 -40 0
-134 -34 -42 0
-134 -34 -44 0
-134 -34 -50 0
-134 -34 -52 0
-134 -34 -58 0
-134 -34 -60 0
-134 -34 -72 0
-134 -40 -42 0
-134 -40 -44 0
-134 -40 -50 0
-134 -40 -52 0
-134 -40 -58 0
-134 -40 -60 0
-134 -40 -72 0
-134 -42 -44 0
-134 -42 -50 0
-134 -42 -52 0
-134 -42 -58 0
-134 -42 -60 0
-134 -42 -72 0
-134 -44 -50 0
-134 -44 -52 0
-134 -44 -58 0
-134 -44 -60 0
-134 -44 -72 0
-134 -50 -52 0
-134 -50 -58 0
-134 -50 -60 0
-134 -50 -72 0
-134 -52 -58 0
-134 -52 -60 0
-134 -52 -72 0
-134 -58 -60 0
-134 -58 -72 0
-134 -60 -72 0
-63 -64 0
135 136 0
-135 1 3 5 7 11 15 17 19 21 25 29 31 33 37 41 43 47 51 55 59 69 0
-135 -1 -3 0
-135 -1 -5 0
-135 -1 -7 0
-135 -1 -11 0
-135 -1 -15 0
-135 -1 -17 0
-135 -1 -19 0
-135 -1 -21 0
-135 -1 -25 0
-135 -1 -29 0
-135 -1 -31 0
-135 -1 -33 0
-135 -1 -37 0
-135 -1 -41 0
-135 -1 -43 0
-135 -1 -47 0
-135 -1 -51 0
-135 -1 -55 0
-135 -1 -59 0
-135 -1 -69 0
-135 -3 -5 0
-135 -3 -7 0
-135 -3 -11 0
-135 -3 -15 0
-135 -3 -17 0
-135 -3 -19 0
-135 -3 -21 0
-135 -3 -25 0
-135 -3 -29 0
-135 -3 -31 0
-135 -3 -33 0
-135 -3 -37 0
-135 -3 -41 0
-135 -3 -43 0
-135 -3 -47 0
-135 -3 -51 0
-135 -3 -55 0
-135 -3 -59 0
-135 -3 -69 0
-135 -5 -7 0
-135 -5 -11 0
-135 -5 -15 0
-135 -5 -17 0
-135 -5 -19 0
-135 -5 -21 0
-135 -5 -25 0
-135 -5 -29 0
-135 -5 -31 0
-135 -5 -33 0
-135 -5 -37 0
-135 -5 -41 0
-135 -5 -43 0
-135 -5 -47 0
-135 -5 -51 0
-135 -5 -55 0
-135 -5 -59 0
-135 -5 -69 0
-135 -7 -11 0
-135 -7 -15 0
-135 -7 -17 0
-135 -7 -19 0
-135 -7 -21 0
-135 -7 -25 0
-135 -7 -29 0
-135 -7 -31 0
-135 -7 -33 0
-135 -7 -37 0
-135 -7 -41 0
-135 -7 -43 0
-135 -7 -47 0
-135 -7 -51 0
-135 -7 -55 0
-135 -7 -59 0
-135 -7 -69 0
-135 -11 -15 0
-135 -11 -17 0
-135 -11 -19 0
-135 -11 -21 0
-135 -11 -25 0
-135 -11 -29 0
-135 -11 -31 0
-135 -11 -33 0
-135 -11 -37 0
-135 -11 -41 0
-135 -11 -43 0
-135 -11 -47 0
-135 -11 -51 0
-135 -11 -55 0
-135 -11 -59 0
-135 -11 -69 0
-135 -15 -17 0
-135 -15 -19 0
-135 -15 -21 0
-135 -15 -25 0
-135 -15 -29 0
-135 -15 -31 0
-135 -15 -33 0
-135 -15 -37 0
-135 -15 -41 0
-135 -15 -43 0
-135 -15 -47 0
-135 -15 -51 0
-135 -15 -55 0
-135 -15 -59 0
-135 -15 -69 0
-135 -17 -19 0
-135 -17 -21 0
-135 -17 -25 0
-135 -17 -29 0
-135 -17 -31 0
-135 -17 -33 0
-135 -17 -37 0
-135 -17 -41 0
-135 -17 -43 0
-135 -17 -47 0
-135 -17 -51 0
-135 -17 -55 0
-135 -17 -59 0
-135 -17 -69 0
-135 -19 -21 0
-135 -19 -25 0
-135 -19 -29 0
-135 -19 -31 0
-135 -19 -33 0
-135 -19 -37 0
-135 -19 -41 0
-135 -19 -43 0
-135 -19 -47 0
-135 -19 -51 0
-135 -19 -55 0
-135 -19 -59 0
-135 -19 -69 0
-135 -21 -25 0
-135 -21 -29 0
-135 -21 -31 0
-135 -21 -33 0
-135 -21 -37 0
-135 -21 -41 0
-135 -21 -43 0
-135 -21 -47 0
-135 -21 -51 0
-135 -21 -55 0
-135 -21 -59 0
-135 -21 -69 0
-135 -25 -29 0
-135 -25 -31 0
-135 -25 -33 0
-135 -25 -37 0
-135 -25 -41 0
-135 -25 -43 0
-135 -25 -47 0
-135 -25 -51 0
-135 -25 -55 0
-135 -25 -59 0
-135 -25 -69 0
-135 -29 -31 0
-135 -29 -33 0
-135 -29 -37 0
-135 -29 -41 0
-135 -29 -43 0
-135 -29 -47 0
-135 -29 -51 0
-135 -29 -55 0
-135 -29 -59 0
-135 -29 -69 0
-135 -31 -33 0
-135 -31 -37 0
-135 -31 -41 0
-135 -31 -43 0
-135 -31 -47 0
-135 -31 -51 0
-135 -31 -55 0
-135 -31 -59 0
-135 -31 -69 0
-135 -33 -37 0
-135 -33 -41 0
-135 -33 -43 0
-135 -33 -47 0
-135 -33 -51 0
-135 -33 -55 0
-135 -33 -59 0
-135 -33 -69 0
-135 -37 -41 0
-135 -37 -43 0
-135 -37 -47 0
-135 -37 -51 0
-135 -37 -55 0
-135 -37 -59 0
-135 -37 -69 0
-135 -41 -43 0
-135 -41 -47 0
-135 -41 -51 0
-135 -41 -55 0
-135 -41 -59 0
-135 -41 -69 0
-135 -43 -47 0
-135 -43 -51 0
-135 -43 -55 0
-135 -43 -59 0
-135 -43 -69 0
-135 -47 -51 0
-135 -47 -55 0
-135 -47 -59 0
-135 -47 -69 0
-135 -51 -55 0
-135 -51 -59 0
-135 -51 -69 0
-135 -55 -59 0
-135 -55 -69 0
-135 -59 -69 0
-136 2 4 6 8 12 16 18 20 22 26 30 32 34 38 42 44 48 52 56 60 70 0
-136 -2 -4 0
-136 -2 -6 0
-136 -2 -8 0
-136 -2 -12 0
-136 -2 -16 0
-136 -2 -18 0
-136 -2 -20 0
-136 -2 -22 0
-136 -2 -26 0
-136 -2 -30 0
-136 -2 -32 0
-136 -2 -34 0
-136 -2 -38 0
-136 -2 -42 0
-136 -2 -44 0
-136 -2 -48 0
-136 -2 -52 0
-136 -2 -56 0
-136 -2 -60 0
-136 -2 -70 0
-136 -4 -6 0
-136 -4 -8 0
-136 -4 -12 0
-136 -4 -16 0
-136 -4 -18 0
-136 -4 -20 0
-136 -4 -22 0
-136 -4 -26 0
-136 -4 -30 0
-136 -4 -32 0
-136 -4 -34 0
-136 -4 -38 0
-136 -4 -42 0
-136 -4 -44 0
-136 -4 -48 0
-136 -4 -52 0
-136 -4 -56 0
-136 -4 -60 0
-136 -4 -70 0
-136 -6 -8 0
-136 -6 -12 0
-136 -6 -16 0
-136 -6 -18 0
-136 -6 -20 0
-136 -6 -22 0
-136 -6 -26 0
-136 -6 -30 0
-136 -6 -32 0
-136 -6 -34 0
-136 -6 -38 0
-136 -6 -42 0
-136 -6 -44 0
-136 -6 -48 0
-136 -6 -52 0
-136 -6 -56 0
-136 -6 -60 0
-136 -6 -70 0
-136 -8 -12 0
-136 -8 -16 0
-136 -8 -18 0
-136 -8 -20 0
-136 -8 -22 0
-136 -8 -26 0
-136 -8 -30 0
-136 -8 -32 0
-136 -8 -34 0
-136 -8 -38 0
-136 -8 -42 0
-136 -8 -44 0
-136 -8 -48 0
-136 -8 -52 0
-136 -8 -56 0
-136 -8 -60 0
-136 -8 -70 0
-136 -12 -16 0
-136 -12 -18 0
-136 -12 -20 0
-136 -12 -22 0
-136 -12 -26 0
-136 -12 -30 0
-136 -12 -32 0
-136 -12 -34 0
-136 -12 -38 0
-136 -12 -42 0
-136 -12 -44 0
-136 -12 -48 0
-136 -12 -52 0
-136 -12 -56 0
-136 -12 -60 0
-136 -12 -70 0
-136 -16 -18 0
-136 -16 -20 0
-136 -16 -22 0
-136 -16 -26 0
-136 -16 -30 0
-136 -16 -32 0
-136 -16 -34 0
-136 -16 -38 0
-136 -16 -42 0
-136 -16 -44 0
-136 -16 -48 0
-136 -16 -52 0
-136 -16 -56 0
-136 -16 -60 0
-136 -16 -70 0
-136 -18 -20 0
-136 -18 -22 0
-136 -18 -26 0
-136 -18 -30 0
-136 -18 -32 0
-136 -18 -34 0
-136 -18 -38 0
-136 -18 -42 0
-136 -18 -44 0
-136 -18 -48 0
-136 -18 -52 0
-136 -18 -56 0
-136 -18 -60 0
-136 -18 -70 0
-136 -20 -22 0
-136 -20 -26 0
-136 -20 -30 0
-136 -20 -32 0
-136 -20 -34 0
-136 -20 -38 0
-136 -20 -42 0
-136 -20 -44 0
-136 -20 -48 0
-136 -20 -52 0
-136 -20 -56 0
-136 -20 -60 0
-136 -20 -70 0
-136 -22 -26 0
-136 -22 -30 0
-136 -22 -32 0
-136 -22 -34 0
-136 -22 -38 0
-136 -22 -42 0
-136 -22 -44 0
-136 -22 -48 0
-136 -22 -52 0
-136 -22 -56 0
-136 -22 -60 0
-136 -22 -70 0
-136 -26 -30 0
-136 -26 -32 0
-136 -26 -34 0
-136 -26 -38 0
-136 -26 -42 0
-136 -26 -44 0
-136 -26 -48 0
-136 -26 -52 0
-136 -26 -56 0
-136 -26 -60 0
-136 -26 -70 0
-136 -30 -32 0
-136 -30 -34 0
-136 -30 -38 0
-136 -30 -42 0
-136 -30 -44 0
-136 -30 -48 0
-136 -30 -52 0
-136 -30 -56 0
-136 -30 -60 0
-136 -30 -70 0
-136 -32 -34 0
-136 -32 -38 0
-136 -32 -42 0
-136 -32 -44 0
-136 -32 -48 0
-136 -32 -52 0
-136 -32 -56 0
-136 -32 -60 0
-136 -32 -70 0
-136 -34 -38 0
-136 -34 -42 0
-136 -34 -44 0
-136 -34 -48 0
-136 -34 -52 0
-136 -34 -56 0
-136 -34 -60 0
-136 -34 -70 0
-136 -38 -42 0
-136 -38 -44 0
-136 -38 -48 0
-136 -38 -52 0
-136 -38 -56 0
-136 -38 -60 0
-136 -38 -70 0
-136 -42 -44 0
-136 -42 -48 0
-136 -42 -52 0
-136 -42 -56 0
-136 -42 -60 0
-136 -42 -70 0
-136 -44 -48 0
-136 -44 -52 0
-136 -44 -56 0
-136 -44 -60 0
-136 -44 -70 0
-136 -48 -52 0
-136 -48 -56 0
-136 -48 -60 0
-136 -48 -70 0
-136 -52 -56 0
-136 -52 -60 0
-136 -52 -70 0
-136 -56 -60 0
-136 -56 -70 0
-136 -60 -70 0
-65 -66 0
137 138 0
-137 1 3 5 7 11 13 17 19 21 25 27 31 33 37 39 43 47 49 55 57 67 0
-137 -1 -3 0
-137 -1 -5 0
-137 -1 -7 0
-137 -1 -11 0
-137 -1 -13 0
-137 -1 -17 0
-137 -1 -19 0
-137 -1 -21 0
-137 -1 -25 0
-137 -1 -27 0
-137 -1 -31 0
-137 -1 -33 0
-137 -1 -37 0
-137 -1 -39 0
-137 -1 -43 0
-137 -1 -47 0
-137 -1 -49 0
-137 -1 -55 0
-137 -1 -57 0
-137 -1 -67 0
-137 -3 -5 0
-137 -3 -7 0
-137 -3 -11 0
-137 -3 -13 0
-137 -3 -17 0
-137 -3 -19 0
-137 -3 -21 0
-137 -3 -25 0
-137 -3 -27 0
-137 -3 -31 0
-137 -3 -33 0
-137 -3 -37 0
-137 -3 -39 0
-137 -3 -43 0
-137 -3 -47 0
-137 -3 -49 0
-137 -3 -55 0
-137 -3 -57 0
-137 -3 -67 0
-137 -5 -7 0
-137 -5 -11 0
-137 -5 -13 0
-137 -5 -17 0
-137 -5 -19 0
-137 -5 -21 0
-137 -5 -25 0
-137 -5 -27 0
-137 -5 -31 0
-137 -5 -33 0
-137 -5 -37 0
-137 -5 -39 0
-137 -5 -43 0
-137 -5 -47 0
-137 -5 -49 0
-137 -5 -55 0
-137 -5 -57 0
-137 -5 -67 0
-137 -7 -11 0
-137 -7 -13 0
-137 -7 -17 0
-137 -7 -19 0
-137 -7 -21 0
-137 -7 -25 0
-137 -7 -27 0
-137 -7 -31 0
-137 -7 -33 0
-137 -7 -37 0
-137 -7 -39 0
-137 -7 -43 0
-137 -7 -47 0
-137 -7 -49 0
-137 -7 -55 0
-137 -7 -57 0
-137 -7 -67 0
-137 -11 -13 0
-137 -11 -17 0
-137 -11 -19 0
-137 -11 -21 0
-137 -11 -25 0
-137 -11 -27 0
-137 -11 -31 0
-137 -11 -33 0
-137 -11 -37 0
-137 -11 -39 0
-137 -11 -43 0
-137 -11 -47 0
-137 -11 -49 0
-137 -11 -55 0
-137 -11 -57 0
-137 -11 -67 0
-137 -13 -17 0
-137 -13 -19 0
-137 -13 -21 0
-137 -13 -25 0
-137 -13 -27 0
-137 -13 -31 0
-137 -13 -33 0
-137 -13 -37 0
-137 -13 -39 0
-137 -13 -43 0
-137 -13 -47 0
-137 -13 -49 0
-137 -13 -55 0
-137 -13 -57 0
-137 -13 -67 0
-137 -17 -19 0
-137 -17 -21 0
-137 -17 -25 0
-137 -17 -27 0
-137 -17 -31 0
-137 -17 -33 0
-137 -17 -37 0
-137 -17 -39 0
-137 -17 -43 0
-137 -17 -47 0
-137 -17 -49 0
-137 -17 -55 0
-137 -17 -57 0
-137 -17 -67 0
-137 -19 -21 0
-137 -19 -25 0
-137 -19 -27 0
-137 -19 -31 0
-137 -19 -33 0
-137 -19 -37 0
-137 -19 -39 0
-137 -19 -43 0
-137 -19 -47 0
-137 -19 -49 0
-137 -19 -55 0
-137 -19 -57 0
-137 -19 -67 0
-137 -21 -25 0
-137 -21 -27 0
-137 -21 -31 0
-137 -21 -33 0
-137 -21 -37 0
-137 -21 -39 0
-137 -21 -43 0
-137 -21 -47 0
-137 -21 -49 0
-137 -21 -55 0
-137 -21 -57 0
-137 -21 -67 0
-137 -25 -27 0
-137 -25 -31 0
-137 -25 -33 0
-137 -25 -37 0
-137 -25 -39 0
-137 -25 -43 0
-137 -25 -47 0
-137 -25 -49 0
-137 -25 -55 0
-137 -25 -57 0
-137 -25 -67 0
-137 -27 -31 0
-137 -27 -33 0
-137 -27 -37 0
-137 -27 -39 0
-137 -27 -43 0
-137 -27 -47 0
-137 -27 -49 0
-137 -27 -55 0
-137 -27 -57 0
-137 -27 -67 0
-137 -31 -33 0
-137 -31 -37 0
-137 -31 -39 0
-137 -31 -43 0
-137 -31 -47 0
-137 -31 -49 0
-137 -31 -55 0
-137 -31 -57 0
-137 -31 -67 0
-137 -33 -37 0
-137 -33 -39 0
-137 -33 -43 0
-137 -33 -47 0
-137 -33 -49 0
-137 -33 -55 0
-137 -33 -57 0
-137 -33 -67 0
-137 -37 -39 0
-137 -37 -43 0
-137 -37 -47 0
-137 -37 -49 0
-137 -37 -55 0
-137 -37 -57 0
-137 -37 -67 0
-137 -39 -43 0
-137 -39 -47 0
-137 -39 -49 0
-137 -39 -55 0
-137 -39 -57 0
-137 -39 -67 0
-137 -43 -47 0
-137 -43 -49 0
-137 -43 -55 0
-137 -43 -57 0
-137 -43 -67 0
-137 -47 -49 0
-137 -47 -55 0
-137 -47 -57 0
-137 -47 -67 0
-137 -49 -55 0
-137 -49 -57 0
-137 -49 -67 0
-137 -55 -57 0
-137 -55 -67 0
-137 -57 -67 0
-138 2 4 6 8 12 14 18 20 22 26 28 32 34 38 40 44 48 50 56 58 68 0
-138 -2 -4 0
-138 -2 -6 0
-138 -2 -8 0
-138 -2 -12 0
-138 -2 -14 0
-138 -2 -18 0
-138 -2 -20 0
-138 -2 -22 0
-138 -2 -26 0
-138 -2 -28 0
-138 -2 -32 0
-138 -2 -34 0
-138 -2 -38 0
-138 -2 -40 0
-138 -2 -44 0
-138 -2 -48 0
-138 -2 -50 0
-138 -2 -56 0
-138 -2 -58 0
-138 -2 -68 0
-138 -4 -6 0
-138 -4 -8 0
-138 -4 -12 0
-138 -4 -14 0
-138 -4 -18 0
-138 -4 -20 0
-138 -4 -22 0
-138 -4 -26 0
-138 -4 -28 0
-138 -4 -32 0
-138 -4 -34 0
-138 -4 -38 0
-138 -4 -40 0
-138 -4 -44 0
-138 -4 -48 0
-138 -4 -50 0
-138 -4 -56 0
-138 -4 -58 0
-138 -4 -68 0
-138 -6 -8 0
-138 -6 -12 0
-138 -6 -14 0
-138 -6 -18 0
-138 -6 -20 0
-138 -6 -22 0
-138 -6 -26 0
-138 -6 -28 0
-138 -6 -32 0
-138 -6 -34 0
-138 -6 -38 0
-138 -6 -40 0
-138 -6 -44 0
-138 -6 -48 0
-138 -6 -50 0
-138 -6 -56 0
-138 -6 -58 0
-138 -6 -68 0
-138 -8 -12 0
-138 -8 -14 0
-138 -8 -18 0
-138 -8 -20 0
-138 -8 -22 0
-138 -8 -26 0
-138 -8 -28 0
-138 -8 -32 0
-138 -8 -34 0
-138 -8 -38 0
-138 -8 -40 0
-138 -8 -44 0
-138 -8 -48 0
-138 -8 -50 0
-138 -8 -56 0
-138 -8 -58 0
-138 -8 -68 0
-138 -12 -14 0
-138 -12 -18 0
-138 -12 -20 0
-138 -12 -22 0
-138 -12 -26 0
-138 -12 -28 0
-138 -12 -32 0
-138 -12 -34 0
-138 -12 -38 0
-138 -12 -40 0
-138 -12 -44 0
-138 -12 -48 0
-138 -12 -50 0
-138 -12 -56 0
-138 -12 -58 0
-138 -12 -68 0
-138 -14 -18 0
-138 -14 -20 0
-138 -14 -22 0
-138 -14 -26 0
-138 -14 -28 0
-138 -14 -32 0
-138 -14 -34 0
-138 -14 -38 0
-138 -14 -40 0
-138 -14 -44 0
-138 -14 -48 0
-138 -14 -50 0
-138 -14 -56 0
-138 -14 -58 0
-138 -14 -68 0
-138 -18 -20 0
-138 -18 -22 0
-138 -18 -26 0
-138 -18 -28 0
-138 -18 -32 0
-138 -18 -34 0
-138 -18 -38 0
-138 -18 -40 0
-138 -18 -44 0
-138 -18 -48 0
-138 -18 -50 0
-138 -18 -56 0
-138 -18 -58 0
-138 -18 -68 0
-138 -20 -22 0
-138 -20 -26 0
-138 -20 -28 0
-138 -20 -32 0
-138 -20 -34 0
-138 -20 -38 0
-138 -20 -40 0
-138 -20 -44 0
-138 -20 -48 0
-138 -20 -50 0
-138 -20 -56 0
-138 -20 -58 0
-138 -20 -68 0
-138 -22 -26 0
-138 -22 -28 0
-138 -22 -32 0
-138 -22 -34 0
-138 -22 -38 0
-138 -22 -40 0
-138 -22 -44 0
-138 -22 -48 0
-138 -22 -50 0
-138 -22 -56 0
-138 -22 -58 0
-138 -22 -68 0
-138 -26 -28 0
-138 -26 -32 0
-138 -26 -34 0
-138 -26 -38 0
-138 -26 -40 0
-138 -26 -44 0
-138 -26 -48 0
-138 -26 -50 0
-138 -26 -56 0
-138 -26 -58 0
-138 -26 -68 0
-138 -28 -32 0
-138 -28 -34 0
-138 -28 -38 0
-138 -28 -40 0
-138 -28 -44 0
-138 -28 -48 0
-138 -28 -50 0
-138 -28 -56 0
-138 -28 -58 0
-138 -28 -68 0
-138 -32 -34 0
-138 -32 -38 0
-138 -32 -40 0
-138 -32 -44 0
-138 -32 -48 0
-138 -32 -50 0
-138 -32 -56 0
-138 -32 -58 0
-138 -32 -68 0
-138 -34 -38 0
-138 -34 -40 0
-138 -34 -44 0
-138 -34 -48 0
-138 -34 -50 0
-138 -34 -56 0
-138 -34 -58 0
-138 -34 -68 0
-138 -38 -40 0
-138 -38 -44 0
-138 -38 -48 0
-138 -38 -50 0
-138 -38 -56 0
-138 -38 -58 0
-138 -38 -68 0
-138 -40 -44 0
-138 -40 -48 0
-138 -40 -50 0
-138 -40 -56 0
-138 -40 -58 0
-138 -40 -68 0
-138 -44 -48 0
-138 -44 -50 0
-138 -44 -56 0
-138 -44 -58 0
-138 -44 -68 0
-138 -48 -50 0
-138 -48 -56 0
-138 -48 -58 0
-138 -48 -68 0
-138 -50 -56 0
-138 -50 -58 0
-138 -50 -68 0
-138 -56 -58 0
-138 -56 -68 0
-138 -58 -68 0
-67 -68 0
139 140 0
-139 1 3 5 7 9 15 17 19 21 23 29 31 33 35 41 43 45 51 53 59 65 0
-139 -1 -3 0
-139 -1 -5 0
-139 -1 -7 0
-139 -1 -9 0
-139 -1 -15 0
-139 -1 -17 0
-139 -1 -19 0
-139 -1 -21 0
-139 -1 -23 0
-139 -1 -29 0
-139 -1 -31 0
-139 -1 -33 0
-139 -1 -35 0
-139 -1 -41 0
-139 -1 -43 0
-139 -1 -45 0
-139 -1 -51 0
-139 -1 -53 0
-139 -1 -59 0
-139 -1 -65 0
-139 -3 -5 0
-139 -3 -7 0
-139 -3 -9 0
-139 -3 -15 0
-139 -3 -17 0
-139 -3 -19 0
-139 -3 -21 0
-139 -3 -23 0
-139 -3 -29 0
-139 -3 -31 0
-139 -3 -33 0
-139 -3 -35 0
-139 -3 -41 0
-139 -3 -43 0
-139 -3 -45 0
-139 -3 -51 0
-139 -3 -53 0
-139 -3 -59 0
-139 -3 -65 0
-139 -5 -7 0
-139 -5 -9 0
-139 -5 -15 0
-139 -5 -17 0
-139 -5 -19 0
-139 -5 -21 0
-139 -5 -23 0
-139 -5 -29 0
-139 -5 -31 0
-139 -5 -33 0
-139 -5 -35 0
-139 -5 -41 0
-139 -5 -43 0
-139 -5 -45 0
-139 -5 -51 0
-139 -5 -53 0
-139 -5 -59 0
-139 -5 -65 0
-139 -7 -9 0
-139 -7 -15 0
-139 -7 -17 0
-139 -7 -19 0
-139 -7 -21 0
-139 -7 -23 0
-139 -7 -29 0
-139 -7 -31 0
-139 -7 -33 0
-139 -7 -35 0
-139 -7 -41 0
-139 -7 -43 0
-139 -7 -45 0
-139 -7 -51 0
-139 -7 -53 0
-139 -7 -59 0
-139 -7 -65 0
-139 -9 -15 0
-139 -9 -17 0
-139 -9 -19 0
-139 -9 -21 0
-139 -9 -23 0
-139 -9 -29 0
-139 -9 -31 0
-139 -9 -33 0
-139 -9 -35 0
-139 -9 -41 0
-139 -9 -43 0
-139 -9 -45 0
-139 -9 -51 0
-139 -9 -53 0
-139 -9 -59 0
-139 -9 -65 0
-139 -15 -17 0
-139 -15 -19 0
-139 -15 -21 0
-139 -15 -23 0
-139 -15 -29 0
-139 -15 -31 0
-139 -15 -33 0
-139 -15 -35 0
-139 -15 -41 0
-139 -15 -43 0
-139 -15 -45 0
-139 -15 -51 0
-139 -15 -53 0
-139 -15 -59 0
-139 -15 -65 0
-139 -17 -19 0
-139 -17 -21 0
-139 -17 -23 0
-139 -17 -29 0
-139 -17 -31 0
-139 -17 -33 0
-139 -17 -35 0
-139 -17 -41 0
-139 -17 -43 0
-139 -17 -45 0
-139 -17 -51 0
-139 -17 -53 0
-139 -17 -59 0
-139 -17 -65 0
-139 -19 -21 0
-139 -19 -23 0
-139 -19 -29 0
-139 -19 -31 0
-139 -19 -33 0
-139 -19 -35 0
-139 -19 -41 0
-139 -19 -43 0
-139 -19 -45 0
-139 -19 -51 0
-139 -19 -53 0
-139 -19 -59 0
-139 -19 -65 0
-139 -21 -23 0
-139 -21 -29 0
-139 -21 -31 0
-139 -21 -33 0
-139 -21 -35 0
-139 -21 -41 0
-139 -21 -43 0
-139 -21 -45 0
-139 -21 -51 0
-139 -21 -53 0
-139 -21 -59 0
-139 -21 -65 0
-139 -23 -29 0
-139 -23 -31 0
-139 -23 -33 0
-139 -23 -35 0
-139 -23 -41 0
-139 -23 -43 0
-139 -23 -45 0
-139 -23 -51 0
-139 -23 -53 0
-139 -23 -59 0
-139 -23 -65 0
-139 -29 -31 0
-139 -29 -33 0
-139 -29 -35 0
-139 -29 -41 0
-139 -29 -43 0
-139 -29 -45 0
-139 -29 -51 0
-139 -29 -53 0
-139 -29 -59 0
-139 -29 -65 0
-139 -31 -33 0
-139 -31 -35 0
-139 -31 -41 0
-139 -31 -43 0
-139 -31 -45 0
-139 -31 -51 0
-139 -31 -53 0
-139 -31 -59 0
-139 -31 -65 0
-139 -33 -35 0
-139 -33 -41 0
-139 -33 -43 0
-139 -33 -45 0
-139 -33 -51 0
-139 -33 -53 0
-139 -33 -59 0
-139 -33 -65 0
-139 -35 -41 0
-139 -35 -43 0
-139 -35 -45 0
-139 -35 -51 0
-139 -35 -53 0
-139 -35 -59 0
-139 -35 -65 0
-139 -41 -43 0
-139 -41 -45 0
-139 -41 -51 0
-139 -41 -53 0
-139 -41 -59 0
-139 -41 -65 0
-139 -43 -45 0
-139 -43 -51 0
-139 -43 -53 0
-139 -43 -59 0
-139 -43 -65 0
-139 -45 -51 0
-139 -45 -53 0
-139 -45 -59 0
-139 -45 -65 0
-139 -51 -53 0
-139 -51 -59 0
-139 -51 -65 0
-139 -53 -59 0
-139 -53 -65 0
-139 -59 -65 0
-140 2 4 6 8 10 16 18 20 22 24 30 32 34 36 42 44 46 52 54 60 66 0
-140 -2 -4 0
-140 -2 -6 0
-140 -2 -8 0
-140 -2 -10 0
-140 -2 -16 0
-140 -2 -18 0
-140 -2 -20 0
-140 -2 -22 0
-140 -2 -24 0
-140 -2 -30 0
-140 -2 -32 0
-140 -2 -34 0
-140 -2 -36 0
-140 -2 -42 0
-140 -2 -44 0
-140 -2 -46 0
-140 -2 -52 0
-140 -2 -54 0
-140 -2 -60 0
-140 -2 -66 0
-140 -4 -6 0
-140 -4 -8 0
-140 -4 -10 0
-140 -4 -16 0
-140 -4 -18 0
-140 -4 -20 0
-140 -4 -22 0
-140 -4 -24 0
-140 -4 -30 0
-140 -4 -32 0
-140 -4 -34 0
-140 -4 -36 0
-140 -4 -42 0
-140 -4 -44 0
-140 -4 -46 0
-140 -4 -52 0
-140 -4 -54 0
-140 -4 -60 0
-140 -4 -66 0
-140 -6 -8 0
-140 -6 -10 0
-140 -6 -16 0
-140 -6 -18 0
-140 -6 -20 0
-140 -6 -22 0
-140 -6 -24 0
-140 -6 -30 0
-140 -6 -32 0
-140 -6 -34 0
-140 -6 -36 0
-140 -6 -42 0
-140 -6 -44 0
-140 -6 -46 0
-140 -6 -52 0
-140 -6 -54 0
-140 -6 -60 0
-140 -6 -66 0
-140 -8 -10 0
-140 -8 -16 0
-140 -8 -18 0
-140 -8 -20 0
-140 -8 -22 0
-140 -8 -24 0
-140 -8 -30 0
-140 -8 -32 0
-140 -8 -34 0
-140 -8 -36 0
-140 -8 -42 0
-140 -8 -44 0
-140 -8 -46 0
-140 -8 -52 0
-140 -8 -54 0
-140 -8 -60 0
-140 -8 -66 0
-140 -10 -16 0
-140 -10 -18 0
-140 -10 -20 0
-140 -10 -22 0
-140 -10 -24 0
-140 -10 -30 0
-140 -10 -32 0
-140 -10 -34 0
-140 -10 -36 0
-140 -10 -42 0
-140 -10 -44 0
-140 -10 -46 0
-140 -10 -52 0
-140 -10 -54 0
-140 -10 -60 0
-140 -10 -66 0
-140 -16 -18 0
-140 -16 -20 0
-140 -16 -22 0
-140 -16 -24 0
-140 -16 -30 0
-140 -16 -32 0
-140 -16 -34 0
-140 -16 -36 0
-140 -16 -42 0
-140 -16 -44 0
-140 -16 -46 0
-140 -16 -52 0
-140 -16 -54 0
-140 -16 -60 0
-140 -16 -66 0
-140 -18 -20 0
-140 -18 -22 0
-140 -18 -24 0
-140 -18 -30 0
-140 -18 -32 0
-140 -18 -34 0
-140 -18 -36 0
-140 -18 -42 0
-140 -18 -44 0
-140 -18 -46 0
-140 -18 -52 0
-140 -18 -54 0
-140 -18 -60 0
-140 -18 -66 0
-140 -20 -22 0
-140 -20 -24 0
-140 -20 -30 0
-140 -20 -32 0
-140 -20 -34 0
-140 -20 -36 0
-140 -20 -42 0
-140 -20 -44 0
-140 -20 -46 0
-140 -20 -52 0
-140 -20 -54 0
-140 -20 -60 0
-140 -20 -66 0
-140 -22 -24 0
-140 -22 -30 0
-140 -22 -32 0
-140 -22 -34 0
-140 -22 -36 0
-140 -22 -42 0
-140 -22 -44 0
-140 -22 -46 0
-140 -22 -52 0
-140 -22 -54 0
-140 -22 -60 0
-140 -22 -66 0
-140 -24 -30 0
-140 -24 -32 0
-140 -24 -34 0
-140 -24 -36 0
-140 -24 -42 0
-140 -24 -44 0
-140 -24 -46 0
-140 -24 -52 0
-140 -24 -54 0
-140 -24 -60 0
-140 -24 -66 0
-140 -30 -32 0
-140 -30 -34 0
-140 -30 -36 0
-140 -30 -42 0
-140 -30 -44 0
-140 -30 -46 0
-140 -30 -52 0
-140 -30 -54 0
-140 -30 -60 0
-140 -30 -66 0
-140 -32 -34 0
-140 -32 -36 0
-140 -32 -42 0
-140 -32 -44 0
-140 -32 -46 0
-140 -32 -52 0
-140 -32 -54 0
-140 -32 -60 0
-140 -32 -66 0
-140 -34 -36 0
-140 -34 -42 0
-140 -34 -44 0
-140 -34 -46 0
-140 -34 -52 0
-140 -34 -54 0
-140 -34 -60 0
-140 -34 -66 0
-140 -36 -42 0
-140 -36 -44 0
-140 -36 -46 0
-140 -36 -52 0
-140 -36 -54 0
-140 -36 -60 0
-140 -36 -66 0
-140 -42 -44 0
-140 -42 -46 0
-140 -42 -52 0
-140 -42 -54 0
-140 -42 -60 0
-140 -42 -66 0
-140 -44 -46 0
-140 -44 -52 0
-140 -44 -54 0
-140 -44 -60 0
-140 -44 -66 0
-140 -46 -52 0
-140 -46 -54 0
-140 -46 -60 0
-140 -46 -66 0
-140 -52 -54 0
-140 -52 -60 0
-140 -52 -66 0
-140 -54 -60 0
-140 -54 -66 0
-140 -60 -66 0
-69 -70 0
141 142 0
-141 1 3 5 7 9 13 17 19 21 23 27 31 33 35 39 43 45 49 53 57 63 0
-141 -1 -3 0
-141 -1 -5 0
-141 -1 -7 0
-141 -1 -9 0
-141 -1 -13 0
-141 -1 -17 0
-141 -1 -19 0
-141 -1 -21 0
-141 -1 -23 0
-141 -1 -27 0
-141 -1 -31 0
-141 -1 -33 0
-141 -1 -35 0
-141 -1 -39 0
-141 -1 -43 0
-141 -1 -45 0
-141 -1 -49 0
-141 -1 -53 0
-141 -1 -57 0
-141 -1 -63 0
-141 -3 -5 0
-141 -3 -7 0
-141 -3 -9 0
-141 -3 -13 0
-141 -3 -17 0
-141 -3 -19 0
-141 -3 -21 0
-141 -3 -23 0
-141 -3 -27 0
-141 -3 -31 0
-141 -3 -33 0
-141 -3 -35 0
-141 -3 -39 0
-141 -3 -43 0
-141 -3 -45 0
-141 -3 -49 0
-141 -3 -53 0
-141 -3 -57 0
-141 -3 -63 0
-141 -5 -7 0
-141 -5 -9 0
-141 -5 -13 0
-141 -5 -17 0
-141 -5 -19 0
-141 -5 -21 0
-141 -5 -23 0
-141 -5 -27 0
-141 -5 -31 0
-141 -5 -33 0
-141 -5 -35 0
-141 -5 -39 0
-141 -5 -43 0
-141 -5 -45 0
-141 -5 -49 0
-141 -5 -53 0
-141 -5 -57 0
-141 -5 -63 0
-141 -7 -9 0
-141 -7 -13 0
-141 -7 -17 0
-141 -7 -19 0
-141 -7 -21 0
-141 -7 -23 0
-141 -7 -27 0
-141 -7 -31 0
-141 -7 -33 0
-141 -7 -35 0
-141 -7 -39 0
-141 -7 -43 0
-141 -7 -45 0
-141 -7 -49 0
-141 -7 -53 0
-141 -7 -57 0
-141 -7 -63 0
-141 -9 -13 0
-141 -9 -17 0
-141 -9 -19 0
-141 -9 -21 0
-141 -9 -23 0
-141 -9 -27 0
-141 -9 -31 0
-141 -9 -33 0
-141 -9 -35 0
-141 -9 -39 0
-141 -9 -43 0
-141 -9 -45 0
-141 -9 -49 0
-141 -9 -53 0
-141 -9 -57 0
-141 -9 -63 0
-141 -13 -17 0
-141 -13 -19 0
-141 -13 -21 0
-141 -13 -23 0
-141 -13 -27 0
-141 -13 -31 0
-141 -13 -33 0
-141 -13 -35 0
-141 -13 -39 0
-141 -13 -43 0
-141 -13 -45 0
-141 -13 -49 0
-141 -13 -53 0
-141 -13 -57 0
-141 -13 -63 0
-141 -17 -19 0
-141 -17 -21 0
-141 -17 -23 0
-141 -17 -27 0
-141 -17 -31 0
-141 -17 -33 0
-141 -17 -35 0
-141 -17 -39 0
-141 -17 -43 0
-141 -17 -45 0
-141 -17 -49 0
-141 -17 -53 0
-141 -17 -57 0
-141 -17 -63 0
-141 -19 -21 0
-141 -19 -23 0
-141 -19 -27 0
-141 -19 -31 0
-141 -19 -33 0
-141 -19 -35 0
-141 -19 -39 0
-141 -19 -43 0
-141 -19 -45 0
-141 -19 -49 0
-141 -19 -53 0
-141 -19 -57 0
-141 -19 -63 0
-141 -21 -23 0
-141 -21 -27 0
-141 -21 -31 0
-141 -21 -33 0
-141 -21 -35 0
-141 -21 -39 0
-141 -21 -43 0
-141 -21 -45 0
-141 -21 -49 0
-141 -21 -53 0
-141 -21 -57 0
-141 -21 -63 0
-141 -23 -27 0
-141 -23 -31 0
-141 -23 -33 0
-141 -23 -35 0
-141 -23 -39 0
-141 -23 -43 0
-141 -23 -45 0
-141 -23 -49 0
-141 -23 -53 0
-141 -23 -57 0
-141 -23 -63 0
-141 -27 -31 0
-141 -27 -33 0
-141 -27 -35 0
-141 -27 -39 0
-141 -27 -43 0
-141 -27 -45 0
-141 -27 -49 0
-141 -27 -53 0
-141 -27 -57 0
-141 -27 -63 0
-141 -31 -33 0
-141 -31 -35 0
-141 -31 -39 0
-141 -31 -43 0
-141 -31 -45 0
-141 -31 -49 0
-141 -31 -53 0
-141 -31 -57 0
-141 -31 -63 0
-141 -33 -35 0
-141 -33 -39 0
-141 -33 -43 0
-141 -33 -45 0
-141 -33 -49 0
-141 -33 -53 0
-141 -33 -57 0
-141 -33 -63 0
-141 -35 -39 0
-141 -35 -43 0
-141 -35 -45 0
-141 -35 -49 0
-141 -35 -53 0
-141 -35 -57 0
-141 -35 -63 0
-141 -39 -43 0
-141 -39 -45 0
-141 -39 -49 0
-141 -39 -53 0
-141 -39 -57 0
-141 -39 -63 0
-141 -43 -45 0
-141 -43 -49 0
-141 -43 -53 0
-141 -43 -57 0
-141 -43 -63 0
-141 -45 -49 0
-141 -45 -53 0
-141 -45 -57 0
-141 -45 -63 0
-141 -49 -53 0
-141 -49 -57 0
-141 -49 -63 0
-141 -53 -57 0
-141 -53 -63 0
-141 -57 -63 0
-142 2 4 6 8 10 14 18 20 22 24 28 32 34 36 40 44 46 50 54 58 64 0
-142 -2 -4 0
-142 -2 -6 0
-142 -2 -8 0
-142 -2 -10 0
-142 -2 -14 0
-142 -2 -18 0
-142 -2 -20 0
-142 -2 -22 0
-142 -2 -24 0
-142 -2 -28 0
-142 -2 -32 0
-142 -2 -34 0
-142 -2 -36 0
-142 -2 -40 0
-142 -2 -44 0
-142 -2 -46 0
-142 -2 -50 0
-142 -2 -54 0
-142 -2 -58 0
-142 -2 -64 0
-142 -4 -6 0
-142 -4 -8 0
-142 -4 -10 0
-142 -4 -14 0
-142 -4 -18 0
-142 -4 -20 0
-142 -4 -22 0
-142 -4 -24 0
-142 -4 -28 0
-142 -4 -32 0
-142 -4 -34 0
-142 -4 -36 0
-142 -4 -40 0
-142 -4 -44 0
-142 -4 -46 0
-142 -4 -50 0
-142 -4 -54 0
-142 -4 -58 0
-142 -4 -64 0
-142 -6 -8 0
-142 -6 -10 0
-142 -6 -14 0
-142 -6 -18 0
-142 -6 -20 0
-142 -6 -22 0
-142 -6 -24 0
-142 -6 -28 0
-142 -6 -32 0
-142 -6 -34 0
-142 -6 -36 0
-142 -6 -40 0
-142 -6 -44 0
-142 -6 -46 0
-142 -6 -50 0
-142 -6 -54 0
-142 -6 -58 0
-142 -6 -64 0
-142 -8 -10 0
-142 -8 -14 0
-142 -8 -18 0
-142 -8 -20 0
-142 -8 -22 0
-142 -8 -24 0
-142 -8 -28 0
-142 -8 -32 0
-142 -8 -34 0
-142 -8 -36 0
-142 -8 -40 0
-142 -8 -44 0
-142 -8 -46 0
-142 -8 -50 0
-142 -8 -54 0
-142 -8 -58 0
-142 -8 -64 0
-142 -10 -14 0
-142 -10 -18 0
-142 -10 -20 0
-142 -10 -22 0
-142 -10 -24 0
-142 -10 -28 0
-142 -10 -32 0
-142 -10 -34 0
-142 -10 -36 0
-142 -10 -40 0
-142 -10 -44 0
-142 -10 -46 0
-142 -10 -50 0
-142 -10 -54 0
-142 -10 -58 0
-142 -10 -64 0
-142 -14 -18 0
-142 -14 -20 0
-142 -14 -22 0
-142 -14 -24 0
-142 -14 -28 0
-142 -14 -32 0
-142 -14 -34 0
-142 -14 -36 0
-142 -14 -40 0
-142 -14 -44 0
-142 -14 -46 0
-142 -14 -50 0
-142 -14 -54 0
-142 -14 -58 0
-142 -14 -64 0
-142 -18 -20 0
-142 -18 -22 0
-142 -18 -24 0
-142 -18 -28 0
-142 -18 -32 0
-142 -18 -34 0
-142 -18 -36 0
-142 -18 -40 0
-142 -18 -44 0
-142 -18 -46 0
-142 -18 -50 0
-142 -18 -54 0
-142 -18 -58 0
-142 -18 -64 0
-142 -20 -22 0
-142 -20 -24 0
-142 -20 -28 0
-142 -20 -32 0
-142 -20 -34 0
-142 -20 -36 0
-142 -20 -40 0
-142 -20 -44 0
-142 -20 -46 0
-142 -20 -50 0
-142 -20 -54 0
-142 -20 -58 0
-142 -20 -64 0
-142 -22 -24 0
-142 -22 -28 0
-142 -22 -32 0
-142 -22 -34 0
-142 -22 -36 0
-142 -22 -40 0
-142 -22 -44 0
-142 -22 -46 0
-142 -22 -50 0
-142 -22 -54 0
-142 -22 -58 0
-142 -22 -64 0
-142 -24 -28 0
-142 -24 -32 0
-142 -24 -34 0
-142 -24 -36 0
-142 -24 -40 0
-142 -24 -44 0
-142 -24 -46 0
-142 -24 -50 0
-142 -24 -54 0
-142 -24 -58 0
-142 -24 -64 0
-142 -28 -32 0
-142 -28 -34 0
-142 -28 -36 0
-142 -28 -40 0
-142 -28 -44 0
-142 -28 -46 0
-142 -28 -50 0
-142 -28 -54 0
-142 -28 -58 0
-142 -28 -64 0
-142 -32 -34 0
-142 -32 -36 0
-142 -32 -40 0
-142 -32 -44 0
-142 -32 -46 0
-142 -32 -50 0
-142 -32 -54 0
-142 -32 -58 0
-142 -32 -64 0
-142 -34 -36 0
-142 -34 -40 0
-142 -34 -44 0
-142 -34 -46 0
-142 -34 -50 0
-142 -34 -54 0
-142 -34 -58 0
-142 -34 -64 0
-142 -36 -40 0
-142 -36 -44 0
-142 -36 -46 0
-142 -36 -50 0
-142 -36 -54 0
-142 -36 -58 0
-142 -36 -64 0
-142 -40 -44 0
-142 -40 -46 0
-142 -40 -50 0
-142 -40 -54 0
-142 -40 -58 0
-142 -40 -64 0
-142 -44 -46 0
-142 -44 -50 0
-142 -44 -54 0
-142 -44 -58 0
-142 -44 -64 0
-142 -46 -50 0
-142 -46 -54 0
-142 -46 -58 0
-142 -46 -64 0
-142 -50 -54 0
-142 -50 -58 0
-142 -50 -64 0
-142 -54 -58 0
-142 -54 -64 0
-142 -58 -64 0
-71 -72 0
143 144 0
-143 1 3 5 7 9 11 17 19 21 23 25 31 33 35 37 43 45 47 53 55 61 0
-143 -1 -3 0
-143 -1 -5 0
-143 -1 -7 0
-143 -1 -9 0
-143 -1 -11 0
-143 -1 -17 0
-143 -1 -19 0
-143 -1 -21 0
-143 -1 -23 0
-143 -1 -25 0
-143 -1 -31 0
-143 -1 -33 0
-143 -1 -35 0
-143 -1 -37 0
-143 -1 -43 0
-143 -1 -45 0
-143 -1 -47 0
-143 -1 -53 0
-143 -1 -55 0
-143 -1 -61 0
-143 -3 -5 0
-143 -3 -7 0
-143 -3 -9 0
-143 -3 -11 0
-143 -3 -17 0
-143 -3 -19 0
-143 -3 -21 0
-143 -3 -23 0
-143 -3 -25 0
-143 -3 -31 0
-143 -3 -33 0
-143 -3 -35 0
-143 -3 -37 0
-143 -3 -43 0
-143 -3 -45 0
-143 -3 -47 0
-143 -3 -53 0
-143 -3 -55 0
-143 -3 -61 0
-143 -5 -7 0
-143 -5 -9 0
-143 -5 -11 0
-143 -5 -17 0
-143 -5 -19 0
-143 -5 -21 0
-143 -5 -23 0
-143 -5 -25 0
-143 -5 -31 0
-143 -5 -33 0
-143 -5 -35 0
-143 -5 -37 0
-143 -5 -43 0
-143 -5 -45 0
-143 -5 -47 0
-143 -5 -53 0
-143 -5 -55 0
-143 -5 -61 0
-143 -7 -9 0
-143 -7 -11 0
-143 -7 -17 0
-143 -7 -19 0
-143 -7 -21 0
-143 -7 -23 0
-143 -7 -25 0
-143 -7 -31 0
-143 -7 -33 0
-143 -7 -35 0
-143 -7 -37 0
-143 -7 -43 0
-143 -7 -45 0
-143 -7 -47 0
-143 -7 -53 0
-143 -7 -55 0
-143 -7 -61 0
-143 -9 -11 0
-143 -9 -17 0
-143 -9 -19 0
-143 -9 -21 0
-143 -9 -23 0
-143 -9 -25 0
-143 -9 -31 0
-143 -9 -33 0
-143 -9 -35 0
-143 -9 -37 0
-143 -9 -43 0
-143 -9 -45 0
-143 -9 -47 0
-143 -9 -53 0
-143 -9 -55 0
-143 -9 -61 0
-143 -11 -17 0
-143 -11 -19 0
-143 -11 -21 0
-143 -11 -23 0
-143 -11 -25 0
-143 -11 -31 0
-143 -11 -33 0
-143 -11 -35 0
-143 -11 -37 0
-143 -11 -43 0
-143 -11 -45 0
-143 -11 -47 0
-143 -11 -53 0
-143 -11 -55 0
-143 -11 -61 0
-143 -17 -19 0
-143 -17 -21 0
-143 -17 -23 0
-143 -17 -25 0
-143 -17 -31 0
-143 -17 -33 0
-143 -17 -35 0
-143 -17 -37 0
-143 -17 -43 0
-143 -17 -45 0
-143 -17 -47 0
-143 -17 -53 0
-143 -17 -55 0
-143 -17 -61 0
-143 -19 -21 0
-143 -19 -23 0
-143 -19 -25 0
-143 -19 -31 0
-143 -19 -33 0
-143 -19 -35 0
-143 -19 -37 0
-143 -19 -43 0
-143 -19 -45 0
-143 -19 -47 0
-143 -19 -53 0
-143 -19 -55 0
-143 -19 -61 0
-143 -21 -23 0
-143 -21 -25 0
-143 -21 -31 0
-143 -21 -33 0
-143 -21 -35 0
-143 -21 -37 0
-143 -21 -43 0
-143 -21 -45 0
-143 -21 -47 0
-143 -21 -53 0
-143 -21 -55 0
-143 -21 -61 0
-143 -23 -25 0
-143 -23 -31 0
-143 -23 -33 0
-143 -23 -35 0
-143 -23 -37 0
-143 -23 -43 0
-143 -23 -45 0
-143 -23 -47 0
-143 -23 -53 0
-143 -23 -55 0
-143 -23 -61 0
-143 -25 -31 0
-143 -25 -33 0
-143 -25 -35 0
-143 -25 -37 0
-143 -25 -43 0
-143 -25 -45 0
-143 -25 -47 0
-143 -25 -53 0
-143 -25 -55 0
-143 -25 -61 0
-143 -31 -33 0
-143 -31 -35 0
-143 -31 -37 0
-143 -31 -43 0
-143 -31 -45 0
-143 -31 -47 0
-143 -31 -53 0
-143 -31 -55 0
-143 -31 -61 0
-143 -33 -35 0
-143 -33 -37 0
-143 -33 -43 0
-143 -33 -45 0
-143 -33 -47 0
-143 -33 -53 0
-143 -33 -55 0
-143 -33 -61 0
-143 -35 -37 0
-143 -35 -43 0
-143 -35 -45 0
-143 -35 -47 0
-143 -35 -53 0
-143 -35 -55 0
-143 -35 -61 0
-143 -37 -43 0
-143 -37 -45 0
-143 -37 -47 0
-143 -37 -53 0
-143 -37 -55 0
-143 -37 -61 0
-143 -43 -45 0
-143 -43 -47 0
-143 -43 -53 0
-143 -43 -55 0
-143 -43 -61 0
-143 -45 -47 0
-143 -45 -53 0
-143 -45 -55 0
-143 -45 -61 0
-143 -47 -53 0
-143 -47 -55 0
-143 -47 -61 0
-143 -53 -55 0
-143 -53 -61 0
-143 -55 -61 0
-144 2 4 6 8 10 12 18 20 22 24 26 32 34 36 38 44 46 48 54 56 62 0
-144 -2 -4 0
-144 -2 -6 0
-144 -2 -8 0
-144 -2 -10 0
-144 -2 -12 0
-144 -2 -18 0
-144 -2 -20 0
-144 -2 -22 0
-144 -2 -24 0
-144 -2 -26 0
-144 -2 -32 0
-144 -2 -34 0
-144 -2 -36 0
-144 -2 -38 0
-144 -2 -44 0
-144 -2 -46 0
-144 -2 -48 0
-144 -2 -54 0
-144 -2 -56 0
-144 -2 -62 0
-144 -4 -6 0
-144 -4 -8 0
-144 -4 -10 0
-144 -4 -12 0
-144 -4 -18 0
-144 -4 -20 0
-144 -4 -22 0
-144 -4 -24 0
-144 -4 -26 0
-144 -4 -32 0
-144 -4 -34 0
-144 -4 -36 0
-144 -4 -38 0
-144 -4 -44 0
-144 -4 -46 0
-144 -4 -48 0
-144 -4 -54 0
-144 -4 -56 0
-144 -4 -62 0
-144 -6 -8 0
-144 -6 -10 0
-144 -6 -12 0
-144 -6 -18 0
-144 -6 -20 0
-144 -6 -22 0
-144 -6 -24 0
-144 -6 -26 0
-144 -6 -32 0
-144 -6 -34 0
-144 -6 -36 0
-144 -6 -38 0
-144 -6 -44 0
-144 -6 -46 0
-144 -6 -48 0
-144 -6 -54 0
-144 -6 -56 0
-144 -6 -62 0
-144 -8 -10 0
-144 -8 -12 0
-144 -8 -18 0
-144 -8 -20 0
-144 -8 -22 0
-144 -8 -24 0
-144 -8 -26 0
-144 -8 -32 0
-144 -8 -34 0
-144 -8 -36 0
-144 -8 -38 0
-144 -8 -44 0
-144 -8 -46 0
-144 -8 -48 0
-144 -8 -54 0
-144 -8 -56 0
-144 -8 -62 0
-144 -10 -12 0
-144 -10 -18 0
-144 -10 -20 0
-144 -10 -22 0
-144 -10 -24 0
-144 -10 -26 0
-144 -10 -32 0
-144 -10 -34 0
-144 -10 -36 0
-144 -10 -38 0
-144 -10 -44 0
-144 -10 -46 0
-144 -10 -48 0
-144 -10 -54 0
-144 -10 -56 0
-144 -10 -62 0
-144 -12 -18 0
-144 -12 -20 0
-144 -12 -22 0
-144 -12 -24 0
-144 -12 -26 0
-144 -12 -32 0
-144 -12 -34 0
-144 -12 -36 0
-144 -12 -38 0
-144 -12 -44 0
-144 -12 -46 0
-144 -12 -48 0
-144 -12 -54 0
-144 -12 -56 0
-144 -12 -62 0
-144 -18 -20 0
-144 -18 -22 0
-144 -18 -24 0
-144 -18 -26 0
-144 -18 -32 0
-144 -18 -34 0
-144 -18 -36 0
-144 -18 -38 0
-144 -18 -44 0
-144 -18 -46 0
-144 -18 -48 0
-144 -18 -54 0
-144 -18 -56 0
-144 -18 -62 0
-144 -20 -22 0
-144 -20 -24 0
-144 -20 -26 0
-144 -20 -32 0
-144 -20 -34 0
-144 -20 -36 0
-144 -20 -38 0
-144 -20 -44 0
-144 -20 -46 0
-144 -20 -48 0
-144 -20 -54 0
-144 -20 -56 0
-144 -20 -62 0
-144 -22 -24 0
-144 -22 -26 0
-144 -22 -32 0
-144 -22 -34 0
-144 -22 -36 0
-144 -22 -38 0
-144 -22 -44 0
-144 -22 -46 0
-144 -22 -48 0
-144 -22 -54 0
-144 -22 -56 0
-144 -22 -62 0
-144 -24 -26 0
-144 -24 -32 0
-144 -24 -34 0
-144 -24 -36 0
-144 -24 -38 0
-144 -24 -44 0
-144 -24 -46 0
-144 -24 -48 0
-144 -24 -54 0
-144 -24 -56 0
-144 -24 -62 0
-144 -26 -32 0
-144 -26 -34 0
-144 -26 -36 0
-144 -26 -38 0
-144 -26 -44 0
-144 -26 -46 0
-144 -26 -48 0
-144 -26 -54 0
-144 -26 -56 0
-144 -26 -62 0
-144 -32 -34 0
-144 -32 -36 0
-144 -32 -38 0
-144 -32 -44 0
-144 -32 -46 0
-144 -32 -48 0
-144 -32 -54 0
-144 -32 -56 0
-144 -32 -62 0
-144 -34 -36 0
-144 -34 -38 0
-144 -34 -44 0
-144 -34 -46 0
-144 -34 -48 0
-144 -34 -54 0
-144 -34 -56 0
-144 -34 -62 0
-144 -36 -38 0
-144 -36 -44 0
-144 -36 -46 0
-144 -36 -48 0
-144 -36 -54 0
-144 -36 -56 0
-144 -36 -62 0
-144 -38 -44 0
-144 -38 -46 0
-144 -38 -48 0
-144 -38 -54 0
-144 -38 -56 0
-144 -38 -62 0
-144 -44 -46 0
-144 -44 -48 0
-144 -44 -54 0
-144 -44 -56 0
-144 -44 -62 0
-144 -46 -48 0
-144 -46 -54 0
-144 -46 -56 0
-144 -46 -62 0
-144 -48 -54 0
-144 -48 -56 0
-144 -48 -62 0
-144 -54 -56 0
-144 -54 -62 0
-144 -56 -62 0
